
     Program PWSCF v.7.4 starts on  1Aug2026 at 22:54:55 

     This program is part of the open-source Quantum ESPRESSO suite
     for quantum simulation of materials; please cite
         "P. Giannozzi et al., J. Phys.:Condens. Matter 21 395502 (2009);
         "P. Giannozzi et al., J. Phys.:Condens. Matter 29 465901 (2017);
         "P. Giannozzi et al., J. Chem. Phys. 152 154105 (2020);
          URL http://www.quantum-espresso.org", 
     in publications or presentations arising from this work. More details at
     http://www.quantum-espresso.org/quote

     Parallel version (MPI), running on     6 processors

     MPI processes distributed on     1 nodes
     15456 MiB available memory on the printing compute node when the environment starts
 
     Waiting for input...
     Reading input from standard input
Warning: card &CELL ignored
Warning: card     CELL_DOFREE='IBRAV' ignored
Warning: card / ignored

     Current dimensions of program PWSCF are:
     Max number of different atomic species (ntypx) = 10
     Max number of k-points (npk) =  40000
     Max angular momentum in pseudopotentials (lmaxx) =  4
     file Si.pbe-n-kjpaw_psl.1.0.0.UPF: wavefunction(s)  3S 3P renormalized
 
     R & G space division:  proc/nbgrp/npool/nimage =       6
     Subspace diagonalization in iterative solution of the eigenvalue problem:
     a serial algorithm will be used

 
     Parallelization info
     --------------------
     sticks:   dense  smooth     PW     G-vecs:    dense   smooth      PW
     Min         184     124     39                 4051     2220     379
     Max         186     125     40                 4052     2222     380
     Sum        1111     745    235                24309    13323    2277
 
     Using Slab Decomposition
 


     bravais-lattice index     =            2
     lattice parameter (alat)  =      10.3500  a.u.
     unit-cell volume          =     277.1795 (a.u.)^3
     number of atoms/cell      =            2
     number of atomic types    =            1
     number of electrons       =         8.00
     number of Kohn-Sham states=            8
     kinetic-energy cutoff     =      50.0000  Ry
     charge density cutoff     =     300.0000  Ry
     scf convergence threshold =      1.0E-08
     mixing beta               =       0.7000
     number of iterations used =            8  plain     mixing
     energy convergence thresh.=      1.0E-05
     force convergence thresh. =      1.0E-04
     Exchange-correlation= SLA  PW   PBX  PBC
                           (   1   4   3   4   0   0   0)
     nstep                     =           50


     celldm(1)=  10.350000  celldm(2)=   0.000000  celldm(3)=   0.000000
     celldm(4)=   0.000000  celldm(5)=   0.000000  celldm(6)=   0.000000

     crystal axes: (cart. coord. in units of alat)
               a(1) = (  -0.500000   0.000000   0.500000 )  
               a(2) = (   0.000000   0.500000   0.500000 )  
               a(3) = (  -0.500000   0.500000   0.000000 )  

     reciprocal axes: (cart. coord. in units 2 pi/alat)
               b(1) = ( -1.000000 -1.000000  1.000000 )  
               b(2) = (  1.000000  1.000000  1.000000 )  
               b(3) = ( -1.000000  1.000000 -1.000000 )  


     PseudoPot. # 1 for Si read from file:
     ../../pseudo/Si.pbe-n-kjpaw_psl.1.0.0.UPF
     MD5 check sum: c39c59da582df4a0d9f10159256ea34e
     Pseudo is Projector augmented-wave + core cor, Zval =  4.0
     Generated using &quot;atomic&quot; code by A. Dal Corso  v.6.3
     Shape of augmentation charge: PSQ
     Using radial grid of 1141 points,  6 beta functions with: 
                l(1) =   0
                l(2) =   0
                l(3) =   1
                l(4) =   1
                l(5) =   2
                l(6) =   2
     Q(r) pseudized with 0 coefficients 


     atomic species   valence    mass     pseudopotential
     Si                4.00    28.08550     Si( 1.00)

     No symmetry found



   Cartesian axes

     site n.     atom                  positions (alat units)
         1        Si     tau(   1) = (   0.0000000   0.0000000   0.0000000  )
         2        Si     tau(   2) = (   0.2500000   0.2400000   0.2450000  )

     number of k points=   432  Gaussian smearing, width (Ry)=  0.2000

     Number of k-points >= 100: set verbosity='high' to print them.

     Dense  grid:    24309 G-vectors     FFT dimensions: (  45,  45,  45)

     Smooth grid:    13323 G-vectors     FFT dimensions: (  36,  36,  36)

     Estimated max dynamical RAM per process >      30.65 MB

     Estimated total dynamical RAM >     183.88 MB

     Initial potential from superposition of free atoms

     starting charge       7.9989, renormalised to       8.0000
     Starting wfcs are    8 randomized atomic wfcs
     Checking if some PAW data can be deallocated... 

     total cpu time spent up to now is        0.9 secs

     Self-consistent Calculation

     iteration #  1     ecut=    50.00 Ry     beta= 0.70
     Davidson diagonalization with overlap
     ethr =  1.00E-02,  avg # of iterations =  4.3

     Threshold (ethr) on eigenvalues was too large:
     Diagonalizing with lowered threshold

     Davidson diagonalization with overlap
     ethr =  3.99E-04,  avg # of iterations =  3.7

     total cpu time spent up to now is        5.7 secs

     total energy              =     -93.52254546 Ry
     estimated scf accuracy    <       0.03497871 Ry

     iteration #  2     ecut=    50.00 Ry     beta= 0.70
     Davidson diagonalization with overlap
     ethr =  4.37E-04,  avg # of iterations =  1.1

     total cpu time spent up to now is        7.1 secs

     total energy              =     -93.52394565 Ry
     estimated scf accuracy    <       0.00154576 Ry

     iteration #  3     ecut=    50.00 Ry     beta= 0.70
     Davidson diagonalization with overlap
     ethr =  1.93E-05,  avg # of iterations =  5.2

     total cpu time spent up to now is        9.4 secs

     total energy              =     -93.52405334 Ry
     estimated scf accuracy    <       0.00003360 Ry

     iteration #  4     ecut=    50.00 Ry     beta= 0.70
     Davidson diagonalization with overlap
     ethr =  4.20E-07,  avg # of iterations =  4.1

     total cpu time spent up to now is       11.7 secs

     total energy              =     -93.52406023 Ry
     estimated scf accuracy    <       0.00000022 Ry

     iteration #  5     ecut=    50.00 Ry     beta= 0.70
     Davidson diagonalization with overlap
     ethr =  2.81E-09,  avg # of iterations =  4.9

     total cpu time spent up to now is       14.3 secs

     total energy              =     -93.52406045 Ry
     estimated scf accuracy    <       0.00000001 Ry

     iteration #  6     ecut=    50.00 Ry     beta= 0.70
     Davidson diagonalization with overlap
     ethr =  1.42E-10,  avg # of iterations =  3.2

     total cpu time spent up to now is       16.4 secs

     End of self-consistent calculation

     Number of k-points >= 100: set verbosity='high' to print the bands.

     the Fermi energy is     6.0766 ev

!    total energy              =     -93.52406046 Ry
     total all-electron energy =     -1160.215790 Ry
     estimated scf accuracy    <          8.7E-10 Ry
     smearing contrib. (-TS)   =      -0.20823031 Ry
     internal energy E=F+TS    =     -93.31583015 Ry

     The total energy is F=E-TS. E is the sum of the following terms:
     one-electron contribution =       5.70877592 Ry
     hartree contribution      =       1.04819757 Ry
     xc contribution           =     -12.24188247 Ry
     ewald contribution        =     -16.65159778 Ry
     one-center paw contrib.   =     -71.17932338 Ry

     convergence has been achieved in   6 iterations

     Forces acting on atoms (cartesian axes, Ry/au):

     atom    1 type  1   force =    -0.00175824   -0.01817294   -0.00914957
     atom    2 type  1   force =     0.00175824    0.01817294    0.00914957

     Total force =     0.028881     Total SCF correction =     0.000006

     BFGS Geometry Optimization
     Energy error            =      8.3E-04 Ry
     Gradient error          =      1.8E-02 Ry/Bohr

     number of scf cycles    =   1
     number of bfgs steps    =   0

     energy             new  =     -93.5240604574 Ry

     new trust radius        =       0.0204220970 bohr
     new conv_thr            =       0.0000000100 Ry


ATOMIC_POSITIONS (alat)
Si              -0.0001698780       -0.0017558401       -0.0008840169
Si               0.2501698780        0.2417558401        0.2458840169



     Writing config-only to output data dir ./silicon/silicon.save/ :
     XML data file
     NEW-OLD atomic charge density approx. for the potential

     total cpu time spent up to now is       16.7 secs

     Self-consistent Calculation

     iteration #  1     ecut=    50.00 Ry     beta= 0.70
     Davidson diagonalization with overlap
     ethr =  1.00E-06,  avg # of iterations =  6.1

     total cpu time spent up to now is       20.1 secs

     total energy              =     -93.52473930 Ry
     estimated scf accuracy    <       0.00002959 Ry

     iteration #  2     ecut=    50.00 Ry     beta= 0.70
     Davidson diagonalization with overlap
     ethr =  3.70E-07,  avg # of iterations =  1.9

     total cpu time spent up to now is       22.0 secs

     total energy              =     -93.52474396 Ry
     estimated scf accuracy    <       0.00000129 Ry

     iteration #  3     ecut=    50.00 Ry     beta= 0.70
     Davidson diagonalization with overlap
     ethr =  1.61E-08,  avg # of iterations =  2.7

     total cpu time spent up to now is       23.9 secs

     total energy              =     -93.52474417 Ry
     estimated scf accuracy    <       0.00000008 Ry

     iteration #  4     ecut=    50.00 Ry     beta= 0.70
     Davidson diagonalization with overlap
     ethr =  9.78E-10,  avg # of iterations =  3.4

     total cpu time spent up to now is       26.0 secs

     End of self-consistent calculation

     Number of k-points >= 100: set verbosity='high' to print the bands.

     the Fermi energy is     6.0776 ev

!    total energy              =     -93.52474418 Ry
     total all-electron energy =     -1160.216474 Ry
     estimated scf accuracy    <          5.5E-10 Ry
     smearing contrib. (-TS)   =      -0.20794350 Ry
     internal energy E=F+TS    =     -93.31680068 Ry

     The total energy is F=E-TS. E is the sum of the following terms:
     one-electron contribution =       5.70978219 Ry
     hartree contribution      =       1.04766046 Ry
     xc contribution           =     -12.24160695 Ry
     ewald contribution        =     -16.65347750 Ry
     one-center paw contrib.   =     -71.17915889 Ry

     convergence has been achieved in   4 iterations

     Forces acting on atoms (cartesian axes, Ry/au):

     atom    1 type  1   force =    -0.00011949   -0.01176055   -0.00581774
     atom    2 type  1   force =     0.00011949    0.01176055    0.00581774

     Total force =     0.018556     Total SCF correction =     0.000015
     Energy error            =      6.8E-04 Ry
     Gradient error          =      1.2E-02 Ry/Bohr

     number of scf cycles    =   2
     number of bfgs steps    =   1

     energy             old  =     -93.5240604574 Ry
     energy             new  =     -93.5247441803 Ry

     CASE: energy            _new < energy            _old

     new trust radius        =       0.0224643066 bohr
     new conv_thr            =       0.0000000068 Ry


ATOMIC_POSITIONS (alat)
Si              -0.0001914124       -0.0037011154       -0.0018464908
Si               0.2501914124        0.2437011154        0.2468464908



     Writing config-only to output data dir ./silicon/silicon.save/ :
     XML data file
     NEW-OLD atomic charge density approx. for the potential

     total cpu time spent up to now is       26.6 secs

     Self-consistent Calculation

     iteration #  1     ecut=    50.00 Ry     beta= 0.70
     Davidson diagonalization with overlap
     c_bands:  1 eigenvalues not converged
     ethr =  1.00E-06,  avg # of iterations =  6.5

     total cpu time spent up to now is       30.3 secs

     total energy              =     -93.52515102 Ry
     estimated scf accuracy    <       0.00003509 Ry

     iteration #  2     ecut=    50.00 Ry     beta= 0.70
     Davidson diagonalization with overlap
     ethr =  4.39E-07,  avg # of iterations =  1.8

     total cpu time spent up to now is       32.2 secs

     total energy              =     -93.52515642 Ry
     estimated scf accuracy    <       0.00000155 Ry

     iteration #  3     ecut=    50.00 Ry     beta= 0.70
     Davidson diagonalization with overlap
     ethr =  1.94E-08,  avg # of iterations =  2.7

     total cpu time spent up to now is       34.3 secs

     total energy              =     -93.52515668 Ry
     estimated scf accuracy    <       0.00000010 Ry

     iteration #  4     ecut=    50.00 Ry     beta= 0.70
     Davidson diagonalization with overlap
     ethr =  1.19E-09,  avg # of iterations =  3.4

     total cpu time spent up to now is       36.5 secs

     End of self-consistent calculation

     Number of k-points >= 100: set verbosity='high' to print the bands.

     the Fermi energy is     6.0782 ev

!    total energy              =     -93.52515669 Ry
     total all-electron energy =     -1160.216887 Ry
     estimated scf accuracy    <          6.1E-10 Ry
     smearing contrib. (-TS)   =      -0.20776879 Ry
     internal energy E=F+TS    =     -93.31738790 Ry

     The total energy is F=E-TS. E is the sum of the following terms:
     one-electron contribution =       5.71038820 Ry
     hartree contribution      =       1.04734130 Ry
     xc contribution           =     -12.24144336 Ry
     ewald contribution        =     -16.65461293 Ry
     one-center paw contrib.   =     -71.17906110 Ry

     convergence has been achieved in   4 iterations

     Forces acting on atoms (cartesian axes, Ry/au):

     atom    1 type  1   force =     0.00057563   -0.00471115   -0.00234559
     atom    2 type  1   force =    -0.00057563    0.00471115    0.00234559

     Total force =     0.007487     Total SCF correction =     0.000016
     Energy error            =      4.1E-04 Ry
     Gradient error          =      4.7E-03 Ry/Bohr

     number of scf cycles    =   3
     number of bfgs steps    =   2

     energy             old  =     -93.5247441803 Ry
     energy             new  =     -93.5251566943 Ry

     CASE: energy            _new < energy            _old

     new trust radius        =       0.0151312585 bohr
     new conv_thr            =       0.0000000041 Ry


ATOMIC_POSITIONS (alat)
Si              -0.0001064245       -0.0050082320       -0.0024957539
Si               0.2501064245        0.2450082320        0.2474957539



     Writing config-only to output data dir ./silicon/silicon.save/ :
     XML data file
     NEW-OLD atomic charge density approx. for the potential

     total cpu time spent up to now is       36.9 secs

     Self-consistent Calculation

     iteration #  1     ecut=    50.00 Ry     beta= 0.70
     Davidson diagonalization with overlap
     ethr =  1.00E-06,  avg # of iterations =  5.2

     total cpu time spent up to now is       40.1 secs

     total energy              =     -93.52523415 Ry
     estimated scf accuracy    <       0.00001501 Ry

     iteration #  2     ecut=    50.00 Ry     beta= 0.70
     Davidson diagonalization with overlap
     ethr =  1.88E-07,  avg # of iterations =  2.0

     total cpu time spent up to now is       42.0 secs

     total energy              =     -93.52523663 Ry
     estimated scf accuracy    <       0.00000060 Ry

     iteration #  3     ecut=    50.00 Ry     beta= 0.70
     Davidson diagonalization with overlap
     ethr =  7.45E-09,  avg # of iterations =  3.4

     total cpu time spent up to now is       44.4 secs

     total energy              =     -93.52523674 Ry
     estimated scf accuracy    <       0.00000004 Ry

     iteration #  4     ecut=    50.00 Ry     beta= 0.70
     Davidson diagonalization with overlap
     ethr =  4.72E-10,  avg # of iterations =  3.2

     total cpu time spent up to now is       46.8 secs

     End of self-consistent calculation

     Number of k-points >= 100: set verbosity='high' to print the bands.

     the Fermi energy is     6.0783 ev

!    total energy              =     -93.52523675 Ry
     total all-electron energy =     -1160.216967 Ry
     estimated scf accuracy    <          1.2E-10 Ry
     smearing contrib. (-TS)   =      -0.20773483 Ry
     internal energy E=F+TS    =     -93.31750192 Ry

     The total energy is F=E-TS. E is the sum of the following terms:
     one-electron contribution =       5.71050572 Ry
     hartree contribution      =       1.04727961 Ry
     xc contribution           =     -12.24141172 Ry
     ewald contribution        =     -16.65483335 Ry
     one-center paw contrib.   =     -71.17904218 Ry

     convergence has been achieved in   4 iterations

     Forces acting on atoms (cartesian axes, Ry/au):

     atom    1 type  1   force =     0.00038651    0.00002854   -0.00001547
     atom    2 type  1   force =    -0.00038651   -0.00002854    0.00001547

     Total force =     0.000549     Total SCF correction =     0.000005
     Energy error            =      8.0E-05 Ry
     Gradient error          =      3.9E-04 Ry/Bohr

     number of scf cycles    =   4
     number of bfgs steps    =   3

     energy             old  =     -93.5251566943 Ry
     energy             new  =     -93.5252367471 Ry

     CASE: energy            _new < energy            _old

     new trust radius        =       0.0003837250 bohr
     new conv_thr            =       0.0000000004 Ry


ATOMIC_POSITIONS (alat)
Si              -0.0000694418       -0.0050068463       -0.0024979685
Si               0.2500694418        0.2450068463        0.2474979685



     Writing config-only to output data dir ./silicon/silicon.save/ :
     XML data file
     NEW-OLD atomic charge density approx. for the potential

     total cpu time spent up to now is       47.2 secs

     Self-consistent Calculation

     iteration #  1     ecut=    50.00 Ry     beta= 0.70
     Davidson diagonalization with overlap
     ethr =  1.00E-06,  avg # of iterations =  1.9

     Threshold (ethr) on eigenvalues was too large:
     Diagonalizing with lowered threshold

     Davidson diagonalization with overlap
     ethr =  5.65E-11,  avg # of iterations =  5.9

     total cpu time spent up to now is       52.7 secs

     total energy              =     -93.52523699 Ry
     estimated scf accuracy    <       0.00000001 Ry

     iteration #  2     ecut=    50.00 Ry     beta= 0.70
     Davidson diagonalization with overlap
     ethr =  1.34E-10,  avg # of iterations =  1.7

     total cpu time spent up to now is       54.6 secs

     total energy              =     -93.52523699 Ry
     estimated scf accuracy    <          5.3E-10 Ry

     iteration #  3     ecut=    50.00 Ry     beta= 0.70
     Davidson diagonalization with overlap
     ethr =  6.68E-12,  avg # of iterations =  2.2

     total cpu time spent up to now is       56.7 secs

     End of self-consistent calculation

     Number of k-points >= 100: set verbosity='high' to print the bands.

     the Fermi energy is     6.0783 ev

!    total energy              =     -93.52523699 Ry
     total all-electron energy =     -1160.216967 Ry
     estimated scf accuracy    <          3.3E-11 Ry
     smearing contrib. (-TS)   =      -0.20773475 Ry
     internal energy E=F+TS    =     -93.31750225 Ry

     The total energy is F=E-TS. E is the sum of the following terms:
     one-electron contribution =       5.71050615 Ry
     hartree contribution      =       1.04727936 Ry
     xc contribution           =     -12.24141159 Ry
     ewald contribution        =     -16.65483403 Ry
     one-center paw contrib.   =     -71.17904215 Ry

     convergence has been achieved in   3 iterations

     Forces acting on atoms (cartesian axes, Ry/au):

     atom    1 type  1   force =     0.00025202    0.00002465   -0.00000701
     atom    2 type  1   force =    -0.00025202   -0.00002465    0.00000701

     Total force =     0.000358     Total SCF correction =     0.000000
     Energy error            =      2.5E-07 Ry
     Gradient error          =      2.5E-04 Ry/Bohr

     number of scf cycles    =   5
     number of bfgs steps    =   4

     energy             old  =     -93.5252367471 Ry
     energy             new  =     -93.5252369949 Ry

     CASE: energy            _new < energy            _old

     new trust radius        =       0.0004220975 bohr
     new conv_thr            =            1.0E-10 Ry


ATOMIC_POSITIONS (alat)
Si              -0.0000289030       -0.0050025155       -0.0024989937
Si               0.2500289030        0.2450025155        0.2474989937



     Writing config-only to output data dir ./silicon/silicon.save/ :
     XML data file
     NEW-OLD atomic charge density approx. for the potential

     total cpu time spent up to now is       57.1 secs

     Self-consistent Calculation

     iteration #  1     ecut=    50.00 Ry     beta= 0.70
     Davidson diagonalization with overlap
     ethr =  1.00E-06,  avg # of iterations =  1.9

     Threshold (ethr) on eigenvalues was too large:
     Diagonalizing with lowered threshold

     Davidson diagonalization with overlap
     ethr =  7.20E-11,  avg # of iterations =  5.8

     total cpu time spent up to now is       62.5 secs

     total energy              =     -93.52523714 Ry
     estimated scf accuracy    <       0.00000001 Ry

     iteration #  2     ecut=    50.00 Ry     beta= 0.70
     Davidson diagonalization with overlap
     ethr =  1.62E-10,  avg # of iterations =  1.7

     total cpu time spent up to now is       64.5 secs

     total energy              =     -93.52523715 Ry
     estimated scf accuracy    <          6.4E-10 Ry

     iteration #  3     ecut=    50.00 Ry     beta= 0.70
     Davidson diagonalization with overlap
     ethr =  8.00E-12,  avg # of iterations =  2.2

     total cpu time spent up to now is       66.6 secs

     End of self-consistent calculation

     Number of k-points >= 100: set verbosity='high' to print the bands.

     the Fermi energy is     6.0783 ev

!    total energy              =     -93.52523715 Ry
     total all-electron energy =     -1160.216967 Ry
     estimated scf accuracy    <          4.0E-11 Ry
     smearing contrib. (-TS)   =      -0.20773468 Ry
     internal energy E=F+TS    =     -93.31750246 Ry

     The total energy is F=E-TS. E is the sum of the following terms:
     one-electron contribution =       5.71050638 Ry
     hartree contribution      =       1.04727925 Ry
     xc contribution           =     -12.24141153 Ry
     ewald contribution        =     -16.65483445 Ry
     one-center paw contrib.   =     -71.17904211 Ry

     convergence has been achieved in   3 iterations

     Forces acting on atoms (cartesian axes, Ry/au):

     atom    1 type  1   force =     0.00010463    0.00000883   -0.00000329
     atom    2 type  1   force =    -0.00010463   -0.00000883    0.00000329

     Total force =     0.000149     Total SCF correction =     0.000000
     Energy error            =      1.5E-07 Ry
     Gradient error          =      1.0E-04 Ry/Bohr

     number of scf cycles    =   6
     number of bfgs steps    =   5

     energy             old  =     -93.5252369949 Ry
     energy             new  =     -93.5252371464 Ry

     CASE: energy            _new < energy            _old

     new trust radius        =       0.0002990289 bohr
     new conv_thr            =            1.0E-10 Ry


ATOMIC_POSITIONS (alat)
Si              -0.0000001322       -0.0050000659       -0.0024999777
Si               0.2500001322        0.2450000659        0.2474999777



     Writing config-only to output data dir ./silicon/silicon.save/ :
     XML data file
     NEW-OLD atomic charge density approx. for the potential

     total cpu time spent up to now is       67.0 secs

     Self-consistent Calculation

     iteration #  1     ecut=    50.00 Ry     beta= 0.70
     Davidson diagonalization with overlap
     ethr =  1.00E-06,  avg # of iterations =  1.9

     Threshold (ethr) on eigenvalues was too large:
     Diagonalizing with lowered threshold

     Davidson diagonalization with overlap
     ethr =  3.29E-11,  avg # of iterations =  6.0

     total cpu time spent up to now is       72.7 secs

     total energy              =     -93.52523718 Ry
     estimated scf accuracy    <          6.5E-09 Ry

     iteration #  2     ecut=    50.00 Ry     beta= 0.70
     Davidson diagonalization with overlap
     ethr =  8.15E-11,  avg # of iterations =  1.7

     total cpu time spent up to now is       74.7 secs

     total energy              =     -93.52523718 Ry
     estimated scf accuracy    <          3.3E-10 Ry

     iteration #  3     ecut=    50.00 Ry     beta= 0.70
     Davidson diagonalization with overlap
     ethr =  4.09E-12,  avg # of iterations =  2.2

     total cpu time spent up to now is       77.0 secs

     End of self-consistent calculation

     Number of k-points >= 100: set verbosity='high' to print the bands.

     the Fermi energy is     6.0783 ev

!    total energy              =     -93.52523718 Ry
     total all-electron energy =     -1160.216967 Ry
     estimated scf accuracy    <          2.0E-11 Ry
     smearing contrib. (-TS)   =      -0.20773467 Ry
     internal energy E=F+TS    =     -93.31750251 Ry

     The total energy is F=E-TS. E is the sum of the following terms:
     one-electron contribution =       5.71050642 Ry
     hartree contribution      =       1.04727923 Ry
     xc contribution           =     -12.24141152 Ry
     ewald contribution        =     -16.65483453 Ry
     one-center paw contrib.   =     -71.17904211 Ry

     convergence has been achieved in   3 iterations

     Forces acting on atoms (cartesian axes, Ry/au):

     atom    1 type  1   force =     0.00000001   -0.00000012    0.00000026
     atom    2 type  1   force =    -0.00000001    0.00000012   -0.00000026

     Total force =     0.000000     Total SCF correction =     0.000000
     SCF correction compared to forces is large: reduce conv_thr to get better values
     Energy error            =      3.2E-08 Ry
     Gradient error          =      2.6E-07 Ry/Bohr

     bfgs converged in   7 scf cycles and   6 bfgs steps
     (criteria: energy <  1.0E-05 Ry, force <  1.0E-04 Ry/Bohr)

     End of BFGS Geometry Optimization

     Final energy             =     -93.5252371779 Ry

     File ./silicon/silicon.bfgs deleted, as requested
Begin final coordinates

ATOMIC_POSITIONS (alat)
Si              -0.0000001322       -0.0050000659       -0.0024999777
Si               0.2500001322        0.2450000659        0.2474999777
End final coordinates



     Writing all to output data dir ./silicon/silicon.save/ :
     XML data file, charge density, pseudopotentials, collected wavefunctions
 
     init_run     :      0.75s CPU      0.83s WALL (       1 calls)
     electrons    :     70.32s CPU     73.68s WALL (       7 calls)
     update_pot   :      0.44s CPU      0.44s WALL (       6 calls)
     forces       :      0.91s CPU      0.92s WALL (       7 calls)

     Called by init_run:
     wfcinit      :      0.63s CPU      0.69s WALL (       1 calls)
     potinit      :      0.06s CPU      0.07s WALL (       1 calls)
     hinit0       :      0.04s CPU      0.04s WALL (       1 calls)

     Called by electrons:
     c_bands      :     58.80s CPU     61.74s WALL (      31 calls)
     sum_band     :      9.25s CPU      9.65s WALL (      31 calls)
     v_of_rho     :      0.17s CPU      0.18s WALL (      34 calls)
     newd         :      0.33s CPU      0.34s WALL (      34 calls)
     PAW_pot      :      2.67s CPU      2.70s WALL (      40 calls)
     mix_rho      :      0.01s CPU      0.01s WALL (      31 calls)

     Called by c_bands:
     init_us_2    :      1.87s CPU      1.96s WALL (   32832 calls)
     cegterg      :     51.23s CPU     53.86s WALL (   13392 calls)

     Called by *egterg:
     cdiaghg      :      3.57s CPU      3.75s WALL (   54031 calls)
     h_psi        :     43.12s CPU     45.37s WALL (   58783 calls)
     s_psi        :      0.97s CPU      1.02s WALL (   58783 calls)
     g_psi        :      0.16s CPU      0.17s WALL (   44959 calls)

     Called by h_psi:
     h_psi:calbec :      1.68s CPU      1.77s WALL (   58783 calls)
     vloc_psi     :     40.10s CPU     42.19s WALL (   58783 calls)
     add_vuspsi   :      1.02s CPU      1.08s WALL (   58783 calls)

     General routines
     calbec       :      2.44s CPU      2.57s WALL (   86863 calls)
     fft          :      0.09s CPU      0.10s WALL (     515 calls)
     ffts         :      0.01s CPU      0.01s WALL (      65 calls)
     fftw         :     40.73s CPU     42.84s WALL (  757198 calls)
     interpolate  :      0.01s CPU      0.01s WALL (      34 calls)
 
     Parallel routines
 
     PWSCF        :   1m13.47s CPU   1m17.26s WALL

 
   This run was terminated on:  22:56:12   1Aug2026            

=------------------------------------------------------------------------------=
   JOB DONE.
=------------------------------------------------------------------------------=
