
     Program PWSCF v.7.4 starts on  1Aug2026 at 23: 2:51 

     This program is part of the open-source Quantum ESPRESSO suite
     for quantum simulation of materials; please cite
         "P. Giannozzi et al., J. Phys.:Condens. Matter 21 395502 (2009);
         "P. Giannozzi et al., J. Phys.:Condens. Matter 29 465901 (2017);
         "P. Giannozzi et al., J. Chem. Phys. 152 154105 (2020);
          URL http://www.quantum-espresso.org", 
     in publications or presentations arising from this work. More details at
     http://www.quantum-espresso.org/quote

     Parallel version (MPI), running on     6 processors

     MPI processes distributed on     1 nodes
     15411 MiB available memory on the printing compute node when the environment starts
 
     Waiting for input...
     Reading input from standard input
Warning: card &CELL ignored
Warning: card     CELL_DOFREE='IBRAV' ignored
Warning: card / ignored

     Current dimensions of program PWSCF are:
     Max number of different atomic species (ntypx) = 10
     Max number of k-points (npk) =  40000
     Max angular momentum in pseudopotentials (lmaxx) =  4
     file Si.pbe-n-kjpaw_psl.1.0.0.UPF: wavefunction(s)  3S 3P renormalized
 
     R & G space division:  proc/nbgrp/npool/nimage =       6
     Subspace diagonalization in iterative solution of the eigenvalue problem:
     a serial algorithm will be used

 
     Parallelization info
     --------------------
     sticks:   dense  smooth     PW     G-vecs:    dense   smooth      PW
     Min         184     124     39                 4051     2220     379
     Max         186     125     40                 4052     2222     380
     Sum        1111     745    235                24309    13323    2277
 
     Using Slab Decomposition
 


     bravais-lattice index     =            2
     lattice parameter (alat)  =      10.3500  a.u.
     unit-cell volume          =     277.1795 (a.u.)^3
     number of atoms/cell      =            2
     number of atomic types    =            1
     number of electrons       =         8.00
     number of Kohn-Sham states=            8
     kinetic-energy cutoff     =      50.0000  Ry
     charge density cutoff     =     300.0000  Ry
     scf convergence threshold =      1.0E-08
     mixing beta               =       0.7000
     number of iterations used =            8  plain     mixing
     energy convergence thresh.=      1.0E-05
     force convergence thresh. =      1.0E-04
     Exchange-correlation= SLA  PW   PBX  PBC
                           (   1   4   3   4   0   0   0)
     nstep                     =           50


     celldm(1)=  10.350000  celldm(2)=   0.000000  celldm(3)=   0.000000
     celldm(4)=   0.000000  celldm(5)=   0.000000  celldm(6)=   0.000000

     crystal axes: (cart. coord. in units of alat)
               a(1) = (  -0.500000   0.000000   0.500000 )  
               a(2) = (   0.000000   0.500000   0.500000 )  
               a(3) = (  -0.500000   0.500000   0.000000 )  

     reciprocal axes: (cart. coord. in units 2 pi/alat)
               b(1) = ( -1.000000 -1.000000  1.000000 )  
               b(2) = (  1.000000  1.000000  1.000000 )  
               b(3) = ( -1.000000  1.000000 -1.000000 )  


     PseudoPot. # 1 for Si read from file:
     ../../pseudo/Si.pbe-n-kjpaw_psl.1.0.0.UPF
     MD5 check sum: c39c59da582df4a0d9f10159256ea34e
     Pseudo is Projector augmented-wave + core cor, Zval =  4.0
     Generated using &quot;atomic&quot; code by A. Dal Corso  v.6.3
     Shape of augmentation charge: PSQ
     Using radial grid of 1141 points,  6 beta functions with: 
                l(1) =   0
                l(2) =   0
                l(3) =   1
                l(4) =   1
                l(5) =   2
                l(6) =   2
     Q(r) pseudized with 0 coefficients 


     atomic species   valence    mass     pseudopotential
     Si                4.00    28.08550     Si( 1.00)

      2 Sym. Ops. (no inversion) found ( 1 have fractional translation)



   Cartesian axes

     site n.     atom                  positions (alat units)
         1        Si     tau(   1) = (  -0.0000001  -0.0050001  -0.0025000  )
         2        Si     tau(   2) = (   0.2500001   0.2450001   0.2475000  )

     number of k points=   216  Gaussian smearing, width (Ry)=  0.2000

     Number of k-points >= 100: set verbosity='high' to print them.

     Dense  grid:    24309 G-vectors     FFT dimensions: (  48,  48,  48)

     Smooth grid:    13323 G-vectors     FFT dimensions: (  36,  36,  36)

     Estimated max dynamical RAM per process >      23.55 MB

     Estimated total dynamical RAM >     141.29 MB

     Initial potential from superposition of free atoms

     starting charge       7.9989, renormalised to       8.0000
     Starting wfcs are    8 randomized atomic wfcs
     Checking if some PAW data can be deallocated... 

     total cpu time spent up to now is        0.5 secs

     Self-consistent Calculation

     iteration #  1     ecut=    50.00 Ry     beta= 0.70
     Davidson diagonalization with overlap
     ethr =  1.00E-02,  avg # of iterations =  4.3

     Threshold (ethr) on eigenvalues was too large:
     Diagonalizing with lowered threshold

     Davidson diagonalization with overlap
     ethr =  3.97E-04,  avg # of iterations =  3.8

     total cpu time spent up to now is        2.9 secs

     total energy              =     -93.52379148 Ry
     estimated scf accuracy    <       0.03475603 Ry

     iteration #  2     ecut=    50.00 Ry     beta= 0.70
     Davidson diagonalization with overlap
     ethr =  4.34E-04,  avg # of iterations =  1.1

     total cpu time spent up to now is        3.7 secs

     total energy              =     -93.52513283 Ry
     estimated scf accuracy    <       0.00154277 Ry

     iteration #  3     ecut=    50.00 Ry     beta= 0.70
     Davidson diagonalization with overlap
     ethr =  1.93E-05,  avg # of iterations =  5.2

     total cpu time spent up to now is        5.0 secs

     total energy              =     -93.52523037 Ry
     estimated scf accuracy    <       0.00003213 Ry

     iteration #  4     ecut=    50.00 Ry     beta= 0.70
     Davidson diagonalization with overlap
     ethr =  4.02E-07,  avg # of iterations =  4.3

     total cpu time spent up to now is        6.2 secs

     total energy              =     -93.52523704 Ry
     estimated scf accuracy    <       0.00000017 Ry

     iteration #  5     ecut=    50.00 Ry     beta= 0.70
     Davidson diagonalization with overlap
     ethr =  2.17E-09,  avg # of iterations =  5.1

     total cpu time spent up to now is        7.4 secs

     total energy              =     -93.52523723 Ry
     estimated scf accuracy    <       0.00000002 Ry

     iteration #  6     ecut=    50.00 Ry     beta= 0.70
     Davidson diagonalization with overlap
     ethr =  2.30E-10,  avg # of iterations =  2.4

     total cpu time spent up to now is        8.5 secs

     End of self-consistent calculation

     Number of k-points >= 100: set verbosity='high' to print the bands.

     the Fermi energy is     6.0783 ev

!    total energy              =     -93.52523723 Ry
     total all-electron energy =     -1160.216967 Ry
     estimated scf accuracy    <          3.0E-11 Ry
     smearing contrib. (-TS)   =      -0.20773489 Ry
     internal energy E=F+TS    =     -93.31750234 Ry

     The total energy is F=E-TS. E is the sum of the following terms:
     one-electron contribution =       5.71050646 Ry
     hartree contribution      =       1.04728163 Ry
     xc contribution           =     -12.24141303 Ry
     ewald contribution        =     -16.65483453 Ry
     one-center paw contrib.   =     -71.17904287 Ry

     convergence has been achieved in   6 iterations

     Forces acting on atoms (cartesian axes, Ry/au):

     atom    1 type  1   force =     0.00000122    0.00000000    0.00000000
     atom    2 type  1   force =    -0.00000122    0.00000000    0.00000000

     Total force =     0.000002     Total SCF correction =     0.000001
     SCF correction compared to forces is large: reduce conv_thr to get better values

     BFGS Geometry Optimization
     Energy error            =      3.0E-12 Ry
     Gradient error          =      1.2E-06 Ry/Bohr

     bfgs converged in   1 scf cycles and   0 bfgs steps
     (criteria: energy <  1.0E-05 Ry, force <  1.0E-04 Ry/Bohr)

     End of BFGS Geometry Optimization

     Final energy             =     -93.5252372326 Ry
Begin final coordinates

ATOMIC_POSITIONS (alat)
Si              -0.0000001322       -0.0050000659       -0.0024999777
Si               0.2500001322        0.2450000659        0.2474999777
End final coordinates



     Writing all to output data dir ./silicon/silicon.save/ :
     XML data file, charge density, pseudopotentials, collected wavefunctions
 
     init_run     :      0.37s CPU      0.40s WALL (       1 calls)
     electrons    :      7.63s CPU      8.02s WALL (       1 calls)
     forces       :      0.06s CPU      0.07s WALL (       1 calls)

     Called by init_run:
     wfcinit      :      0.24s CPU      0.25s WALL (       1 calls)
     potinit      :      0.07s CPU      0.07s WALL (       1 calls)
     hinit0       :      0.04s CPU      0.05s WALL (       1 calls)

     Called by electrons:
     c_bands      :      6.21s CPU      6.54s WALL (       7 calls)
     sum_band     :      0.97s CPU      1.01s WALL (       7 calls)
     v_of_rho     :      0.04s CPU      0.04s WALL (       7 calls)
     newd         :      0.06s CPU      0.07s WALL (       7 calls)
     PAW_pot      :      0.42s CPU      0.43s WALL (       7 calls)
     mix_rho      :      0.00s CPU      0.00s WALL (       7 calls)

     Called by c_bands:
     init_us_2    :      0.17s CPU      0.18s WALL (    3456 calls)
     cegterg      :      5.44s CPU      5.74s WALL (    1512 calls)

     Called by *egterg:
     cdiaghg      :      0.40s CPU      0.43s WALL (    6951 calls)
     h_psi        :      4.69s CPU      4.95s WALL (    7383 calls)
     s_psi        :      0.10s CPU      0.11s WALL (    7383 calls)
     g_psi        :      0.02s CPU      0.02s WALL (    5655 calls)

     Called by h_psi:
     h_psi:calbec :      0.25s CPU      0.26s WALL (    7383 calls)
     vloc_psi     :      4.30s CPU      4.53s WALL (    7383 calls)
     add_vuspsi   :      0.11s CPU      0.12s WALL (    7383 calls)

     General routines
     calbec       :      0.30s CPU      0.32s WALL (    9759 calls)
     fft          :      0.02s CPU      0.02s WALL (     101 calls)
     ffts         :      0.00s CPU      0.00s WALL (      14 calls)
     fftw         :      4.31s CPU      4.55s WALL (   87724 calls)
     interpolate  :      0.00s CPU      0.00s WALL (       7 calls)
 
     Parallel routines
 
     PWSCF        :      8.17s CPU      8.62s WALL

 
   This run was terminated on:  23: 3: 0   1Aug2026            

=------------------------------------------------------------------------------=
   JOB DONE.
=------------------------------------------------------------------------------=
