
     Program PWSCF v.7.4 starts on  1Aug2026 at 23: 5:19 

     This program is part of the open-source Quantum ESPRESSO suite
     for quantum simulation of materials; please cite
         "P. Giannozzi et al., J. Phys.:Condens. Matter 21 395502 (2009);
         "P. Giannozzi et al., J. Phys.:Condens. Matter 29 465901 (2017);
         "P. Giannozzi et al., J. Chem. Phys. 152 154105 (2020);
          URL http://www.quantum-espresso.org", 
     in publications or presentations arising from this work. More details at
     http://www.quantum-espresso.org/quote

     Parallel version (MPI), running on     6 processors

     MPI processes distributed on     1 nodes
     15425 MiB available memory on the printing compute node when the environment starts
 
     Waiting for input...
     Reading input from standard input
Warning: card &CELL ignored
Warning: card     CELL_DOFREE='IBRAV' ignored
Warning: card / ignored

     Current dimensions of program PWSCF are:
     Max number of different atomic species (ntypx) = 10
     Max number of k-points (npk) =  40000
     Max angular momentum in pseudopotentials (lmaxx) =  4
     file Si.pbe-n-kjpaw_psl.1.0.0.UPF: wavefunction(s)  3S 3P renormalized
 
     R & G space division:  proc/nbgrp/npool/nimage =       6
     Subspace diagonalization in iterative solution of the eigenvalue problem:
     a serial algorithm will be used

 
     Parallelization info
     --------------------
     sticks:   dense  smooth     PW     G-vecs:    dense   smooth      PW
     Min         184     124     39                 4051     2220     379
     Max         186     125     40                 4052     2222     380
     Sum        1111     745    235                24309    13323    2277
 
     Using Slab Decomposition
 


     bravais-lattice index     =            2
     lattice parameter (alat)  =      10.3500  a.u.
     unit-cell volume          =     277.1795 (a.u.)^3
     number of atoms/cell      =            2
     number of atomic types    =            1
     number of electrons       =         8.00
     number of Kohn-Sham states=            8
     kinetic-energy cutoff     =      50.0000  Ry
     charge density cutoff     =     300.0000  Ry
     scf convergence threshold =      1.0E-08
     mixing beta               =       0.7000
     number of iterations used =            8  plain     mixing
     energy convergence thresh.=      1.0E-05
     force convergence thresh. =      1.0E-04
     Exchange-correlation= SLA  PW   PBX  PBC
                           (   1   4   3   4   0   0   0)
     nstep                     =           50


     celldm(1)=  10.350000  celldm(2)=   0.000000  celldm(3)=   0.000000
     celldm(4)=   0.000000  celldm(5)=   0.000000  celldm(6)=   0.000000

     crystal axes: (cart. coord. in units of alat)
               a(1) = (  -0.500000   0.000000   0.500000 )  
               a(2) = (   0.000000   0.500000   0.500000 )  
               a(3) = (  -0.500000   0.500000   0.000000 )  

     reciprocal axes: (cart. coord. in units 2 pi/alat)
               b(1) = ( -1.000000 -1.000000  1.000000 )  
               b(2) = (  1.000000  1.000000  1.000000 )  
               b(3) = ( -1.000000  1.000000 -1.000000 )  


     PseudoPot. # 1 for Si read from file:
     ../../pseudo/Si.pbe-n-kjpaw_psl.1.0.0.UPF
     MD5 check sum: c39c59da582df4a0d9f10159256ea34e
     Pseudo is Projector augmented-wave + core cor, Zval =  4.0
     Generated using &quot;atomic&quot; code by A. Dal Corso  v.6.3
     Shape of augmentation charge: PSQ
     Using radial grid of 1141 points,  6 beta functions with: 
                l(1) =   0
                l(2) =   0
                l(3) =   1
                l(4) =   1
                l(5) =   2
                l(6) =   2
     Q(r) pseudized with 0 coefficients 


     atomic species   valence    mass     pseudopotential
     Si                4.00    28.08550     Si( 1.00)

     48 Sym. Ops., with inversion, found (24 have fractional translation)



   Cartesian axes

     site n.     atom                  positions (alat units)
         1        Si     tau(   1) = (   0.0000000   0.0000000   0.0000000  )
         2        Si     tau(   2) = (   0.2500000   0.2500000   0.2500000  )

     number of k points=    28  Gaussian smearing, width (Ry)=  0.2000
                       cart. coord. in units 2pi/alat
        k(    1) = (  -0.0833333   0.0833333   0.0833333), wk =   0.0185185
        k(    2) = (  -0.2500000   0.2500000  -0.0833333), wk =   0.0555556
        k(    3) = (  -0.4166667   0.4166667  -0.2500000), wk =   0.0555556
        k(    4) = (   0.4166667  -0.4166667   0.5833333), wk =   0.0555556
        k(    5) = (   0.2500000  -0.2500000   0.4166667), wk =   0.0555556
        k(    6) = (   0.0833333  -0.0833333   0.2500000), wk =   0.0555556
        k(    7) = (  -0.0833333   0.4166667   0.0833333), wk =   0.0555556
        k(    8) = (  -0.2500000   0.5833333  -0.0833333), wk =   0.1111111
        k(    9) = (   0.5833333  -0.2500000   0.7500000), wk =   0.1111111
        k(   10) = (   0.4166667  -0.0833333   0.5833333), wk =   0.1111111
        k(   11) = (   0.2500000   0.0833333   0.4166667), wk =   0.1111111
        k(   12) = (  -0.0833333   0.7500000   0.0833333), wk =   0.0555556
        k(   13) = (   0.7500000  -0.0833333   0.9166667), wk =   0.1111111
        k(   14) = (   0.5833333   0.0833333   0.7500000), wk =   0.1111111
        k(   15) = (   0.4166667   0.2500000   0.5833333), wk =   0.1111111
        k(   16) = (  -0.0833333  -0.9166667   0.0833333), wk =   0.0555556
        k(   17) = (  -0.2500000  -0.7500000  -0.0833333), wk =   0.1111111
        k(   18) = (  -0.0833333  -0.5833333   0.0833333), wk =   0.0555556
        k(   19) = (  -0.2500000   0.2500000   0.2500000), wk =   0.0185185
        k(   20) = (  -0.4166667   0.4166667   0.0833333), wk =   0.0555556
        k(   21) = (   0.4166667  -0.4166667   0.9166667), wk =   0.0555556
        k(   22) = (   0.2500000  -0.2500000   0.7500000), wk =   0.0555556
        k(   23) = (  -0.2500000   0.5833333   0.2500000), wk =   0.0555556
        k(   24) = (   0.5833333  -0.2500000   1.0833333), wk =   0.1111111
        k(   25) = (   0.4166667  -0.0833333   0.9166667), wk =   0.1111111
        k(   26) = (  -0.2500000  -1.0833333   0.2500000), wk =   0.0555556
        k(   27) = (  -0.4166667   0.4166667   0.4166667), wk =   0.0185185
        k(   28) = (   0.4166667  -0.4166667   1.2500000), wk =   0.0555556

     Dense  grid:    24309 G-vectors     FFT dimensions: (  48,  48,  48)

     Smooth grid:    13323 G-vectors     FFT dimensions: (  36,  36,  36)

     Estimated max dynamical RAM per process >      17.24 MB

     Estimated total dynamical RAM >     103.43 MB

     Initial potential from superposition of free atoms

     starting charge       7.9989, renormalised to       8.0000
     Starting wfcs are    8 randomized atomic wfcs
     Checking if some PAW data can be deallocated... 

     total cpu time spent up to now is        0.2 secs

     Self-consistent Calculation

     iteration #  1     ecut=    50.00 Ry     beta= 0.70
     Davidson diagonalization with overlap
     ethr =  1.00E-02,  avg # of iterations =  4.2

     Threshold (ethr) on eigenvalues was too large:
     Diagonalizing with lowered threshold

     Davidson diagonalization with overlap
     ethr =  3.97E-04,  avg # of iterations =  3.9

     total cpu time spent up to now is        0.6 secs

     total energy              =     -93.52378310 Ry
     estimated scf accuracy    <       0.03475649 Ry

     iteration #  2     ecut=    50.00 Ry     beta= 0.70
     Davidson diagonalization with overlap
     ethr =  4.34E-04,  avg # of iterations =  1.0

     total cpu time spent up to now is        0.8 secs

     total energy              =     -93.52513243 Ry
     estimated scf accuracy    <       0.00154213 Ry

     iteration #  3     ecut=    50.00 Ry     beta= 0.70
     Davidson diagonalization with overlap
     ethr =  1.93E-05,  avg # of iterations =  5.2

     total cpu time spent up to now is        1.0 secs

     total energy              =     -93.52523030 Ry
     estimated scf accuracy    <       0.00003199 Ry

     iteration #  4     ecut=    50.00 Ry     beta= 0.70
     Davidson diagonalization with overlap
     ethr =  4.00E-07,  avg # of iterations =  4.3

     total cpu time spent up to now is        1.2 secs

     total energy              =     -93.52523719 Ry
     estimated scf accuracy    <       0.00000022 Ry

     iteration #  5     ecut=    50.00 Ry     beta= 0.70
     Davidson diagonalization with overlap
     ethr =  2.81E-09,  avg # of iterations =  5.0

     total cpu time spent up to now is        1.5 secs

     total energy              =     -93.52523738 Ry
     estimated scf accuracy    <       0.00000003 Ry

     iteration #  6     ecut=    50.00 Ry     beta= 0.70
     Davidson diagonalization with overlap
     ethr =  3.68E-10,  avg # of iterations =  2.3

     total cpu time spent up to now is        1.7 secs

     End of self-consistent calculation

          k =-0.0833 0.0833 0.0833 (  1663 PWs)   bands (ev):

    -5.8728   4.9475   5.6629   5.6629   8.3897   8.6123   8.6123   9.5829

          k =-0.2500 0.2500-0.0833 (  1658 PWs)   bands (ev):

    -5.4065   2.8909   4.4693   5.4549   8.4603   9.0056   9.3319  11.4000

          k =-0.4167 0.4167-0.2500 (  1649 PWs)   bands (ev):

    -4.3416   0.1881   4.0066   4.8363   7.9471   9.4118   9.4451  13.2183

          k = 0.4167-0.4167 0.5833 (  1660 PWs)   bands (ev):

    -3.6677  -0.9233   4.0656   4.4683   7.7938   9.1352   9.5598  13.7079

          k = 0.2500-0.2500 0.4167 (  1648 PWs)   bands (ev):

    -4.7422   1.0154   4.5315   4.5521   8.0529   9.1305   9.9174  11.7797

          k = 0.0833-0.0833 0.2500 (  1657 PWs)   bands (ev):

    -5.6373   3.8833   5.0426   5.2123   8.1528   8.9762   9.4843  10.5397

          k =-0.0833 0.4167 0.0833 (  1653 PWs)   bands (ev):

    -5.1704   2.6838   4.3117   4.3339   7.5856   9.6743  10.4841  10.6807

          k =-0.2500 0.5833-0.0833 (  1653 PWs)   bands (ev):

    -4.2811   0.8747   3.0348   3.9552   7.9770   9.5876  10.3346  11.7746

          k = 0.5833-0.2500 0.7500 (  1658 PWs)   bands (ev):

    -3.1996  -0.8220   2.4384   3.7368   8.2230   9.7444  11.6613  12.0498

          k = 0.4167-0.0833 0.5833 (  1652 PWs)   bands (ev):

    -3.8978   0.2015   2.4087   4.2060   8.7948   9.4312  11.0772  11.5438

          k = 0.2500 0.0833 0.4167 (  1651 PWs)   bands (ev):

    -4.9504   1.8745   3.7128   4.8491   8.4410   9.2695  10.3525  10.7354

          k =-0.0833 0.7500 0.0833 (  1658 PWs)   bands (ev):

    -3.5842   0.0469   3.0038   3.3295   6.7834   7.7576  13.2782  13.3593

          k = 0.7500-0.0833 0.9167 (  1658 PWs)   bands (ev):

    -2.4187  -1.2672   2.1917   2.9393   7.3989   8.4980  12.8526  14.2892

          k = 0.5833 0.0833 0.7500 (  1655 PWs)   bands (ev):

    -2.7884  -0.9248   1.7187   3.4689   8.0026  10.8564  11.8281  12.4749

          k = 0.4167 0.2500 0.5833 (  1651 PWs)   bands (ev):

    -3.7919  -0.4450   3.3099   4.2989   8.3754   9.0673  10.3514  12.5383

          k =-0.0833-0.9167 0.0833 (  1655 PWs)   bands (ev):

    -2.5048  -1.2735   2.7415   3.1188   6.6811   7.2365  14.7605  14.8246

          k =-0.2500-0.7500-0.0833 (  1658 PWs)   bands (ev):

    -3.4215  -0.1690   2.4991   3.2711   7.6004   8.8669  11.5131  13.2940

          k =-0.0833-0.5833 0.0833 (  1659 PWs)   bands (ev):

    -4.4810   1.3912   3.5316   3.7422   7.0922   8.6572  11.7687  11.9873

          k =-0.2500 0.2500 0.2500 (  1642 PWs)   bands (ev):

    -5.1824   1.9380   5.0672   5.0672   7.7678   9.3386   9.3386  12.5082

          k =-0.4167 0.4167 0.0833 (  1651 PWs)   bands (ev):

    -4.5192   1.0022   2.9990   4.8998   8.5709   9.8283   9.9627  11.8556

          k = 0.4167-0.4167 0.9167 (  1654 PWs)   bands (ev):

    -3.3720  -0.4212   1.9251   4.1394   7.8865  11.1262  11.1840  12.8810

          k = 0.2500-0.2500 0.7500 (  1651 PWs)   bands (ev):

    -3.3193  -0.4996   2.3862   3.6725   7.4050  10.2758  11.4460  11.7180

          k =-0.2500 0.5833 0.2500 (  1653 PWs)   bands (ev):

    -4.1059   0.2158   3.4369   4.0358   7.8632  10.0065  10.7123  10.8685

          k = 0.5833-0.2500 1.0833 (  1657 PWs)   bands (ev):

    -3.1294  -0.5439   2.0245   3.2723   9.0674   9.5859  10.5475  13.2177

          k = 0.4167-0.0833 0.9167 (  1652 PWs)   bands (ev):

    -2.3195  -1.2749   1.8731   2.6266   8.8706  10.1208  10.8745  12.2494

          k =-0.2500-1.0833 0.2500 (  1656 PWs)   bands (ev):

    -2.5262  -1.1745   1.7499   3.4828   7.1364   9.9897  12.8618  12.9936

          k =-0.4167 0.4167 0.4167 (  1667 PWs)   bands (ev):

    -4.0238  -0.5330   4.6856   4.6856   7.3291   9.2674   9.2674  13.6308

          k = 0.4167-0.4167 1.2500 (  1651 PWs)   bands (ev):

    -3.4366  -0.8382   2.8969   4.2617   8.0205   9.8435  10.2397  13.7176

     the Fermi energy is     6.0784 ev

!    total energy              =     -93.52523739 Ry
     total all-electron energy =     -1160.216967 Ry
     estimated scf accuracy    <          1.5E-10 Ry
     smearing contrib. (-TS)   =      -0.20773533 Ry
     internal energy E=F+TS    =     -93.31750206 Ry

     The total energy is F=E-TS. E is the sum of the following terms:
     one-electron contribution =       5.71050791 Ry
     hartree contribution      =       1.04727709 Ry
     xc contribution           =     -12.24141077 Ry
     ewald contribution        =     -16.65483453 Ry
     one-center paw contrib.   =     -71.17904175 Ry

     convergence has been achieved in   6 iterations

     Forces acting on atoms (cartesian axes, Ry/au):

     atom    1 type  1   force =    -0.00000000   -0.00000000   -0.00000000
     atom    2 type  1   force =     0.00000000    0.00000000    0.00000000

     Total force =     0.000000     Total SCF correction =     0.000000

     BFGS Geometry Optimization
     Energy error            =      6.5E-63 Ry
     Gradient error          =      3.3E-32 Ry/Bohr

     bfgs converged in   1 scf cycles and   0 bfgs steps
     (criteria: energy <  1.0E-05 Ry, force <  1.0E-04 Ry/Bohr)

     End of BFGS Geometry Optimization

     Final energy             =     -93.5252373864 Ry
Begin final coordinates

ATOMIC_POSITIONS (alat)
Si               0.0000000000        0.0000000000        0.0000000000
Si               0.2500000000        0.2500000000        0.2500000000
End final coordinates



     Writing all to output data dir ./silicon/silicon.save/ :
     XML data file, charge density, pseudopotentials, collected wavefunctions
 
     init_run     :      0.16s CPU      0.18s WALL (       1 calls)
     electrons    :      1.43s CPU      1.48s WALL (       1 calls)
     forces       :      0.03s CPU      0.03s WALL (       1 calls)

     Called by init_run:
     wfcinit      :      0.03s CPU      0.03s WALL (       1 calls)
     potinit      :      0.06s CPU      0.07s WALL (       1 calls)
     hinit0       :      0.04s CPU      0.05s WALL (       1 calls)

     Called by electrons:
     c_bands      :      0.77s CPU      0.81s WALL (       7 calls)
     sum_band     :      0.20s CPU      0.21s WALL (       7 calls)
     v_of_rho     :      0.04s CPU      0.04s WALL (       7 calls)
     newd         :      0.06s CPU      0.07s WALL (       7 calls)
     PAW_pot      :      0.41s CPU      0.42s WALL (       7 calls)
     mix_rho      :      0.00s CPU      0.00s WALL (       7 calls)

     Called by c_bands:
     init_us_2    :      0.02s CPU      0.02s WALL (     448 calls)
     cegterg      :      0.68s CPU      0.71s WALL (     196 calls)

     Called by *egterg:
     cdiaghg      :      0.05s CPU      0.05s WALL (     895 calls)
     h_psi        :      0.59s CPU      0.62s WALL (     951 calls)
     s_psi        :      0.01s CPU      0.01s WALL (     951 calls)
     g_psi        :      0.00s CPU      0.00s WALL (     727 calls)

     Called by h_psi:
     h_psi:calbec :      0.03s CPU      0.03s WALL (     951 calls)
     vloc_psi     :      0.54s CPU      0.56s WALL (     951 calls)
     add_vuspsi   :      0.01s CPU      0.01s WALL (     951 calls)

     General routines
     calbec       :      0.04s CPU      0.04s WALL (    1259 calls)
     fft          :      0.02s CPU      0.02s WALL (     101 calls)
     ffts         :      0.00s CPU      0.00s WALL (      14 calls)
     fftw         :      0.54s CPU      0.56s WALL (   11360 calls)
     interpolate  :      0.00s CPU      0.00s WALL (       7 calls)
 
     Parallel routines
 
     PWSCF        :      1.68s CPU      1.77s WALL

 
   This run was terminated on:  23: 5:20   1Aug2026            

=------------------------------------------------------------------------------=
   JOB DONE.
=------------------------------------------------------------------------------=
