
     Program PWSCF v.7.4 starts on  1Aug2026 at 23:13:10 

     This program is part of the open-source Quantum ESPRESSO suite
     for quantum simulation of materials; please cite
         "P. Giannozzi et al., J. Phys.:Condens. Matter 21 395502 (2009);
         "P. Giannozzi et al., J. Phys.:Condens. Matter 29 465901 (2017);
         "P. Giannozzi et al., J. Chem. Phys. 152 154105 (2020);
          URL http://www.quantum-espresso.org", 
     in publications or presentations arising from this work. More details at
     http://www.quantum-espresso.org/quote

     Parallel version (MPI), running on     6 processors

     MPI processes distributed on     1 nodes
     15463 MiB available memory on the printing compute node when the environment starts
 
     Waiting for input...
     Reading input from standard input

     Current dimensions of program PWSCF are:
     Max number of different atomic species (ntypx) = 10
     Max number of k-points (npk) =  40000
     Max angular momentum in pseudopotentials (lmaxx) =  4
     file Si.pbe-n-kjpaw_psl.1.0.0.UPF: wavefunction(s)  3S 3P renormalized
 
     R & G space division:  proc/nbgrp/npool/nimage =       6
     Subspace diagonalization in iterative solution of the eigenvalue problem:
     a serial algorithm will be used

 
     Parallelization info
     --------------------
     sticks:   dense  smooth     PW     G-vecs:    dense   smooth      PW
     Min         190     126     40                 4251     2300     403
     Max         192     127     41                 4252     2302     405
     Sum        1147     757    241                25509    13803    2421
 
     Using Slab Decomposition
 


     bravais-lattice index     =            2
     lattice parameter (alat)  =      10.4927  a.u.
     unit-cell volume          =     288.8054 (a.u.)^3
     number of atoms/cell      =            2
     number of atomic types    =            1
     number of electrons       =         8.00
     number of Kohn-Sham states=            8
     kinetic-energy cutoff     =      50.0000  Ry
     charge density cutoff     =     300.0000  Ry
     scf convergence threshold =      1.0E-08
     mixing beta               =       0.7000
     number of iterations used =            8  plain     mixing
     energy convergence thresh.=      1.0E-05
     force convergence thresh. =      1.0E-04
     press convergence thresh. =      5.0E-01
     Exchange-correlation= SLA  PW   PBX  PBC
                           (   1   4   3   4   0   0   0)
     nstep                     =           50


     celldm(1)=  10.492728  celldm(2)=   0.000000  celldm(3)=   0.000000
     celldm(4)=   0.000000  celldm(5)=   0.000000  celldm(6)=   0.000000

     crystal axes: (cart. coord. in units of alat)
               a(1) = (  -0.500000   0.000000   0.500000 )  
               a(2) = (   0.000000   0.500000   0.500000 )  
               a(3) = (  -0.500000   0.500000   0.000000 )  

     reciprocal axes: (cart. coord. in units 2 pi/alat)
               b(1) = ( -1.000000 -1.000000  1.000000 )  
               b(2) = (  1.000000  1.000000  1.000000 )  
               b(3) = ( -1.000000  1.000000 -1.000000 )  


     PseudoPot. # 1 for Si read from file:
     ../../pseudo/Si.pbe-n-kjpaw_psl.1.0.0.UPF
     MD5 check sum: c39c59da582df4a0d9f10159256ea34e
     Pseudo is Projector augmented-wave + core cor, Zval =  4.0
     Generated using &quot;atomic&quot; code by A. Dal Corso  v.6.3
     Shape of augmentation charge: PSQ
     Using radial grid of 1141 points,  6 beta functions with: 
                l(1) =   0
                l(2) =   0
                l(3) =   1
                l(4) =   1
                l(5) =   2
                l(6) =   2
     Q(r) pseudized with 0 coefficients 


     atomic species   valence    mass     pseudopotential
     Si                4.00    28.08550     Si( 1.00)

      6 Sym. Ops. (no inversion) found



   Cartesian axes

     site n.     atom                  positions (alat units)
         1        Si     tau(   1) = (   0.0000000   0.0000000   0.0000000  )
         2        Si     tau(   2) = (   0.2534475   0.2534475   0.2534475  )

     number of k points=    91  Gaussian smearing, width (Ry)=  0.2000
                       cart. coord. in units 2pi/alat
        k(    1) = (  -0.0833333   0.0833333   0.0833333), wk =   0.0138889
        k(    2) = (  -0.2500000   0.2500000  -0.0833333), wk =   0.0277778
        k(    3) = (  -0.4166667   0.4166667  -0.2500000), wk =   0.0277778
        k(    4) = (   0.4166667  -0.4166667   0.5833333), wk =   0.0277778
        k(    5) = (   0.2500000  -0.2500000   0.4166667), wk =   0.0277778
        k(    6) = (   0.0833333  -0.0833333   0.2500000), wk =   0.0277778
        k(    7) = (  -0.0833333   0.4166667   0.0833333), wk =   0.0277778
        k(    8) = (  -0.2500000   0.5833333  -0.0833333), wk =   0.0277778
        k(    9) = (   0.5833333  -0.2500000   0.7500000), wk =   0.0277778
        k(   10) = (   0.4166667  -0.0833333   0.5833333), wk =   0.0277778
        k(   11) = (   0.2500000   0.0833333   0.4166667), wk =   0.0277778
        k(   12) = (  -0.0833333   0.7500000   0.0833333), wk =   0.0277778
        k(   13) = (   0.7500000  -0.0833333   0.9166667), wk =   0.0277778
        k(   14) = (   0.5833333   0.0833333   0.7500000), wk =   0.0277778
        k(   15) = (   0.4166667   0.2500000   0.5833333), wk =   0.0277778
        k(   16) = (  -0.0833333  -0.9166667   0.0833333), wk =   0.0277778
        k(   17) = (  -0.2500000  -0.7500000  -0.0833333), wk =   0.0277778
        k(   18) = (  -0.0833333  -0.5833333   0.0833333), wk =   0.0277778
        k(   19) = (  -0.2500000   0.2500000   0.2500000), wk =   0.0138889
        k(   20) = (  -0.4166667   0.4166667   0.0833333), wk =   0.0277778
        k(   21) = (   0.4166667  -0.4166667   0.9166667), wk =   0.0277778
        k(   22) = (   0.2500000  -0.2500000   0.7500000), wk =   0.0277778
        k(   23) = (  -0.2500000   0.5833333   0.2500000), wk =   0.0277778
        k(   24) = (   0.5833333  -0.2500000   1.0833333), wk =   0.0277778
        k(   25) = (   0.4166667  -0.0833333   0.9166667), wk =   0.0277778
        k(   26) = (  -0.2500000  -1.0833333   0.2500000), wk =   0.0277778
        k(   27) = (  -0.4166667   0.4166667   0.4166667), wk =   0.0138889
        k(   28) = (   0.4166667  -0.4166667   1.2500000), wk =   0.0277778
        k(   29) = (   0.0833333   0.0833333   0.0833333), wk =   0.0046296
        k(   30) = (   0.2500000   0.2500000  -0.0833333), wk =   0.0138889
        k(   31) = (  -0.2500000  -0.2500000  -0.0833333), wk =   0.0138889
        k(   32) = (   0.4166667   0.4166667  -0.2500000), wk =   0.0138889
        k(   33) = (  -0.4166667  -0.4166667  -0.2500000), wk =   0.0138889
        k(   34) = (  -0.4166667  -0.4166667   0.5833333), wk =   0.0138889
        k(   35) = (   0.4166667   0.4166667   0.5833333), wk =   0.0138889
        k(   36) = (  -0.2500000  -0.2500000   0.4166667), wk =   0.0138889
        k(   37) = (   0.2500000   0.2500000   0.4166667), wk =   0.0138889
        k(   38) = (  -0.0833333  -0.0833333   0.2500000), wk =   0.0138889
        k(   39) = (   0.0833333   0.0833333   0.2500000), wk =   0.0138889
        k(   40) = (   0.4166667   0.0833333   0.0833333), wk =   0.0138889
        k(   41) = (  -0.0833333   0.4166667  -0.0833333), wk =   0.0138889
        k(   42) = (   0.5833333   0.2500000  -0.0833333), wk =   0.0277778
        k(   43) = (  -0.5833333  -0.2500000  -0.0833333), wk =   0.0277778
        k(   44) = (   0.0833333   0.5833333  -0.2500000), wk =   0.0277778
        k(   45) = (  -0.2500000  -0.5833333   0.7500000), wk =   0.0277778
        k(   46) = (   0.2500000   0.5833333   0.7500000), wk =   0.0277778
        k(   47) = (  -0.7500000  -0.2500000   0.5833333), wk =   0.0277778
        k(   48) = (  -0.0833333  -0.4166667   0.5833333), wk =   0.0277778
        k(   49) = (   0.0833333   0.4166667   0.5833333), wk =   0.0277778
        k(   50) = (  -0.5833333  -0.0833333   0.4166667), wk =   0.0277778
        k(   51) = (   0.0833333  -0.2500000   0.4166667), wk =   0.0277778
        k(   52) = (  -0.0833333   0.2500000   0.4166667), wk =   0.0277778
        k(   53) = (  -0.4166667   0.0833333   0.2500000), wk =   0.0277778
        k(   54) = (   0.7500000   0.0833333   0.0833333), wk =   0.0138889
        k(   55) = (  -0.0833333   0.7500000  -0.0833333), wk =   0.0138889
        k(   56) = (  -0.0833333  -0.7500000   0.9166667), wk =   0.0277778
        k(   57) = (   0.0833333   0.7500000   0.9166667), wk =   0.0277778
        k(   58) = (  -0.9166667  -0.0833333   0.7500000), wk =   0.0277778
        k(   59) = (   0.0833333  -0.5833333   0.7500000), wk =   0.0277778
        k(   60) = (  -0.0833333   0.5833333   0.7500000), wk =   0.0277778
        k(   61) = (  -0.7500000   0.0833333   0.5833333), wk =   0.0277778
        k(   62) = (   0.2500000  -0.4166667   0.5833333), wk =   0.0277778
        k(   63) = (  -0.2500000   0.4166667   0.5833333), wk =   0.0277778
        k(   64) = (  -0.5833333   0.2500000   0.4166667), wk =   0.0277778
        k(   65) = (  -0.9166667   0.0833333   0.0833333), wk =   0.0138889
        k(   66) = (  -0.0833333  -0.9166667  -0.0833333), wk =   0.0138889
        k(   67) = (  -0.7500000   0.2500000  -0.0833333), wk =   0.0277778
        k(   68) = (   0.7500000  -0.2500000  -0.0833333), wk =   0.0277778
        k(   69) = (   0.0833333  -0.7500000  -0.2500000), wk =   0.0277778
        k(   70) = (  -0.5833333   0.0833333   0.0833333), wk =   0.0138889
        k(   71) = (  -0.0833333  -0.5833333  -0.0833333), wk =   0.0138889
        k(   72) = (   0.2500000   0.2500000   0.2500000), wk =   0.0046296
        k(   73) = (   0.4166667   0.4166667   0.0833333), wk =   0.0138889
        k(   74) = (  -0.4166667  -0.4166667   0.0833333), wk =   0.0138889
        k(   75) = (  -0.4166667  -0.4166667   0.9166667), wk =   0.0138889
        k(   76) = (   0.4166667   0.4166667   0.9166667), wk =   0.0138889
        k(   77) = (  -0.2500000  -0.2500000   0.7500000), wk =   0.0138889
        k(   78) = (   0.2500000   0.2500000   0.7500000), wk =   0.0138889
        k(   79) = (   0.5833333   0.2500000   0.2500000), wk =   0.0138889
        k(   80) = (  -0.2500000   0.5833333  -0.2500000), wk =   0.0138889
        k(   81) = (  -0.2500000  -0.5833333   1.0833333), wk =   0.0277778
        k(   82) = (   0.2500000   0.5833333   1.0833333), wk =   0.0277778
        k(   83) = (  -1.0833333  -0.2500000   0.5833333), wk =   0.0277778
        k(   84) = (  -0.0833333  -0.4166667   0.9166667), wk =   0.0277778
        k(   85) = (   0.0833333   0.4166667   0.9166667), wk =   0.0277778
        k(   86) = (  -0.9166667  -0.0833333   0.4166667), wk =   0.0277778
        k(   87) = (  -1.0833333   0.2500000   0.2500000), wk =   0.0138889
        k(   88) = (  -0.2500000  -1.0833333  -0.2500000), wk =   0.0138889
        k(   89) = (   0.4166667   0.4166667   0.4166667), wk =   0.0046296
        k(   90) = (  -0.4166667  -0.4166667   1.2500000), wk =   0.0138889
        k(   91) = (   0.4166667   0.4166667   1.2500000), wk =   0.0138889

     Dense  grid:    25509 G-vectors     FFT dimensions: (  45,  45,  45)

     Smooth grid:    13803 G-vectors     FFT dimensions: (  36,  36,  36)

     Estimated max dynamical RAM per process >      22.07 MB

     Estimated total dynamical RAM >     132.41 MB

     Initial potential from superposition of free atoms

     starting charge       7.9989, renormalised to       8.0000
     Starting wfcs are    8 randomized atomic wfcs
     Checking if some PAW data can be deallocated... 

     total cpu time spent up to now is        0.4 secs

     Self-consistent Calculation

     iteration #  1     ecut=    50.00 Ry     beta= 0.70
     Davidson diagonalization with overlap
     ethr =  1.00E-02,  avg # of iterations =  3.9

     Threshold (ethr) on eigenvalues was too large:
     Diagonalizing with lowered threshold

     Davidson diagonalization with overlap
     ethr =  3.64E-04,  avg # of iterations =  4.0

     total cpu time spent up to now is        1.5 secs

     total energy              =     -93.52482704 Ry
     estimated scf accuracy    <       0.03194392 Ry

     iteration #  2     ecut=    50.00 Ry     beta= 0.70
     Davidson diagonalization with overlap
     ethr =  3.99E-04,  avg # of iterations =  1.1

     total cpu time spent up to now is        1.9 secs

     total energy              =     -93.52592551 Ry
     estimated scf accuracy    <       0.00152894 Ry

     iteration #  3     ecut=    50.00 Ry     beta= 0.70
     Davidson diagonalization with overlap
     ethr =  1.91E-05,  avg # of iterations =  4.9

     total cpu time spent up to now is        2.5 secs

     total energy              =     -93.52602163 Ry
     estimated scf accuracy    <       0.00002756 Ry

     iteration #  4     ecut=    50.00 Ry     beta= 0.70
     Davidson diagonalization with overlap
     ethr =  3.45E-07,  avg # of iterations =  4.2

     total cpu time spent up to now is        3.0 secs

     total energy              =     -93.52602831 Ry
     estimated scf accuracy    <       0.00000024 Ry

     iteration #  5     ecut=    50.00 Ry     beta= 0.70
     Davidson diagonalization with overlap
     ethr =  3.00E-09,  avg # of iterations =  4.8

     total cpu time spent up to now is        3.6 secs

     total energy              =     -93.52602852 Ry
     estimated scf accuracy    <       0.00000001 Ry

     iteration #  6     ecut=    50.00 Ry     beta= 0.70
     Davidson diagonalization with overlap
     ethr =  1.59E-10,  avg # of iterations =  3.1

     total cpu time spent up to now is        4.1 secs

     End of self-consistent calculation

          k =-0.0833 0.0833 0.0833 (  1747 PWs)   bands (ev):

    -6.0181   4.4823   5.1774   5.3933   7.8613   8.0963   8.2258   8.8353

          k =-0.2500 0.2500-0.0833 (  1738 PWs)   bands (ev):

    -5.5664   2.4560   4.0992   5.1324   7.9083   8.5032   8.9025  10.7394

          k =-0.4167 0.4167-0.2500 (  1723 PWs)   bands (ev):

    -4.5371  -0.1428   3.6255   4.5190   7.4040   8.9014   9.1228  12.6243

          k = 0.4167-0.4167 0.5833 (  1723 PWs)   bands (ev):

    -3.8909  -1.2070   3.6643   4.1627   7.2598   8.7639   9.1311  13.1709

          k = 0.2500-0.2500 0.4167 (  1722 PWs)   bands (ev):

    -4.9263   0.6678   4.1017   4.2549   7.5308   8.7261   9.4449  11.2427

          k = 0.0833-0.0833 0.2500 (  1742 PWs)   bands (ev):

    -5.7909   3.4467   4.6850   4.8133   7.7211   8.4342   8.9876   9.8584

          k =-0.0833 0.4167 0.0833 (  1734 PWs)   bands (ev):

    -5.3406   2.2618   3.9035   4.0398   7.1876   9.1159  10.0099  10.1667

          k =-0.2500 0.5833-0.0833 (  1721 PWs)   bands (ev):

    -4.4772   0.4578   2.7689   3.6367   7.5303   9.1054   9.8947  11.2812

          k = 0.5833-0.2500 0.7500 (  1724 PWs)   bands (ev):

    -3.4398  -1.1466   2.2072   3.3726   7.7519   9.3118  11.1488  11.5863

          k = 0.4167-0.0833 0.5833 (  1725 PWs)   bands (ev):

    -4.1254  -0.1147   2.1615   3.8025   8.2784   9.0218  10.5368  11.0653

          k = 0.2500 0.0833 0.4167 (  1729 PWs)   bands (ev):

    -5.1372   1.5879   3.3442   4.4122   7.9501   8.7206   9.8344  10.2849

          k =-0.0833 0.7500 0.0833 (  1721 PWs)   bands (ev):

    -3.8116  -0.3122   2.6732   3.0477   6.4391   7.3673  12.6471  12.7735

          k = 0.7500-0.0833 0.9167 (  1716 PWs)   bands (ev):

    -2.6865  -1.5980   1.9805   2.6133   6.9785   8.1238  12.3086  13.6244

          k = 0.5833 0.0833 0.7500 (  1726 PWs)   bands (ev):

    -3.1094  -1.1357   1.4675   3.1161   7.5533  10.3315  11.3634  11.9219

          k = 0.4167 0.2500 0.5833 (  1733 PWs)   bands (ev):

    -4.0604  -0.6084   2.9339   3.9071   7.8079   8.6226   9.8363  12.0481

          k =-0.0833-0.9167 0.0833 (  1719 PWs)   bands (ev):

    -2.7708  -1.5879   2.4231   2.8418   6.3679   6.8371  14.0870  14.1486

          k =-0.2500-0.7500-0.0833 (  1716 PWs)   bands (ev):

    -3.6781  -0.4529   2.2106   2.9308   7.1798   8.4865  10.9211  12.6640

          k =-0.0833-0.5833 0.0833 (  1718 PWs)   bands (ev):

    -4.6760   0.9934   3.1738   3.4521   6.7213   8.2385  11.1933  11.4363

          k =-0.2500 0.2500 0.2500 (  1733 PWs)   bands (ev):

    -5.3504   1.5606   4.6059   4.7883   7.2248   8.8052   8.9910  11.7537

          k =-0.4167 0.4167 0.0833 (  1724 PWs)   bands (ev):

    -4.7071   0.6069   2.6922   4.5789   8.0818   9.3067   9.5238  11.2547

          k = 0.4167-0.4167 0.9167 (  1729 PWs)   bands (ev):

    -3.5965  -0.7869   1.6617   3.8352   7.5122  10.5732  10.6642  12.2476

          k = 0.2500-0.2500 0.7500 (  1722 PWs)   bands (ev):

    -3.5536  -0.8362   2.0801   3.3813   7.0636   9.7776  10.8481  11.2033

          k =-0.2500 0.5833 0.2500 (  1723 PWs)   bands (ev):

    -4.3132  -0.1190   3.0659   3.7383   7.4737   9.4716  10.2250  10.3616

          k = 0.5833-0.2500 1.0833 (  1722 PWs)   bands (ev):

    -3.3616  -0.9144   1.7367   3.0334   8.6397   9.1715  10.0181  12.5777

          k = 0.4167-0.0833 0.9167 (  1721 PWs)   bands (ev):

    -2.6021  -1.5939   1.6301   2.3592   8.4879   9.6392  10.2944  11.7206

          k =-0.2500-1.0833 0.2500 (  1722 PWs)   bands (ev):

    -2.7765  -1.5225   1.4910   3.1959   6.8115   9.4957  12.2651  12.3720

          k =-0.4167 0.4167 0.4167 (  1721 PWs)   bands (ev):

    -4.2329  -0.8277   4.2322   4.4091   6.7864   8.7658   8.9811  13.1497

          k = 0.4167-0.4167 1.2500 (  1726 PWs)   bands (ev):

    -3.6642  -1.1460   2.5594   3.9549   7.6002   9.3541   9.7715  13.1095

          k = 0.0833 0.0833 0.0833 (  1747 PWs)   bands (ev):

    -6.0191   4.6531   5.1846   5.1846   7.7788   8.2063   8.2063   8.8487

          k = 0.2500 0.2500-0.0833 (  1738 PWs)   bands (ev):

    -5.5696   2.5070   4.1631   4.9720   7.9197   8.6331   8.7892  10.7099

          k =-0.2500-0.2500-0.0833 (  1738 PWs)   bands (ev):

    -5.5733   2.5950   4.0681   4.9879   7.8491   8.5763   8.8390  10.7467

          k = 0.4167 0.4167-0.2500 (  1723 PWs)   bands (ev):

    -4.5423  -0.1265   3.7244   4.3789   7.4088   8.9515   9.1066  12.5941

          k =-0.4167-0.4167-0.2500 (  1723 PWs)   bands (ev):

    -4.5714  -0.0043   3.6140   4.4151   7.3492   8.9520   8.9725  12.6394

          k =-0.4167-0.4167 0.5833 (  1723 PWs)   bands (ev):

    -3.8904  -1.2103   3.7883   4.0328   7.2651   8.6508   9.2572  13.2140

          k = 0.4167 0.4167 0.5833 (  1723 PWs)   bands (ev):

    -3.9633  -1.0391   3.6632   4.0709   7.2062   8.6867   9.0966  13.1424

          k =-0.2500-0.2500 0.4167 (  1722 PWs)   bands (ev):

    -4.9233   0.6484   4.1052   4.2787   7.5467   8.5841   9.5632  11.3367

          k = 0.2500 0.2500 0.4167 (  1722 PWs)   bands (ev):

    -4.9449   0.7856   4.1212   4.1342   7.4705   8.6591   9.4125  11.3237

          k =-0.0833-0.0833 0.2500 (  1742 PWs)   bands (ev):

    -5.7899   3.4053   4.6035   4.9564   7.7178   8.3740   9.0574   9.8526

          k = 0.0833 0.0833 0.2500 (  1742 PWs)   bands (ev):

    -5.7932   3.5620   4.6149   4.7516   7.7025   8.4091   9.0087   9.8701

          k = 0.4167 0.0833 0.0833 (  1734 PWs)   bands (ev):

    -5.3444   2.3400   3.9107   3.9447   7.1772   9.1501   9.9655  10.1440

          k =-0.0833 0.4167-0.0833 (  1734 PWs)   bands (ev):

    -5.3385   2.2149   3.9355   4.0685   7.1656   9.0867  10.0558  10.2149

          k = 0.5833 0.2500-0.0833 (  1721 PWs)   bands (ev):

    -4.4882   0.5268   2.7487   3.5743   7.6051   9.0977   9.7787  11.2675

          k =-0.5833-0.2500-0.0833 (  1721 PWs)   bands (ev):

    -4.4975   0.5887   2.7000   3.5734   7.5384   9.1674   9.7802  11.1982

          k = 0.0833 0.5833-0.2500 (  1721 PWs)   bands (ev):

    -4.4790   0.4792   2.6979   3.6876   7.5690   9.0939   9.8874  11.1845

          k =-0.2500-0.5833 0.7500 (  1724 PWs)   bands (ev):

    -3.4417  -1.1361   2.1605   3.4075   7.8477   9.2153  11.1623  11.4830

          k = 0.2500 0.5833 0.7500 (  1724 PWs)   bands (ev):

    -3.5104  -0.9772   2.1057   3.3758   7.7527   9.2289  11.0869  11.5731

          k =-0.7500-0.2500 0.5833 (  1724 PWs)   bands (ev):

    -3.4328  -1.1475   2.0989   3.4854   7.8170   9.3219  11.0514  11.4950

          k =-0.0833-0.4167 0.5833 (  1725 PWs)   bands (ev):

    -4.1058  -0.1844   2.1402   3.8948   8.3659   8.9226  10.5443  11.1165

          k = 0.0833 0.4167 0.5833 (  1725 PWs)   bands (ev):

    -4.1404  -0.0427   2.1010   3.8114   8.2670   8.9595  10.6019  11.0002

          k =-0.5833-0.0833 0.4167 (  1725 PWs)   bands (ev):

    -4.1062  -0.1765   2.1128   3.9186   8.3228   9.0366  10.5262  10.9784

          k = 0.0833-0.2500 0.4167 (  1729 PWs)   bands (ev):

    -5.1255   1.4634   3.3609   4.5407   7.9605   8.7829   9.8260  10.2629

          k =-0.0833 0.2500 0.4167 (  1729 PWs)   bands (ev):

    -5.1313   1.5136   3.4182   4.4017   8.0255   8.6947   9.8654  10.2647

          k =-0.4167 0.0833 0.2500 (  1729 PWs)   bands (ev):

    -5.1245   1.4473   3.3936   4.5233   7.9859   8.6742   9.9064  10.3272

          k = 0.7500 0.0833 0.0833 (  1721 PWs)   bands (ev):

    -3.8210  -0.2800   2.7112   2.9820   6.4056   7.4075  12.6278  12.7337

          k =-0.0833 0.7500-0.0833 (  1721 PWs)   bands (ev):

    -3.8067  -0.3348   2.7688   2.9784   6.3925   7.4020  12.6687  12.8279

          k =-0.0833-0.7500 0.9167 (  1716 PWs)   bands (ev):

    -2.6939  -1.5806   1.9109   2.6671   7.0659   8.0463  12.2284  13.6154

          k = 0.0833 0.7500 0.9167 (  1716 PWs)   bands (ev):

    -2.7311  -1.5281   1.9520   2.6122   6.9835   8.1253  12.2354  13.6564

          k =-0.9167-0.0833 0.7500 (  1716 PWs)   bands (ev):

    -2.6735  -1.6103   1.9020   2.6898   7.0579   8.0481  12.3009  13.6099

          k = 0.0833-0.5833 0.7500 (  1726 PWs)   bands (ev):

    -3.0284  -1.2862   1.4555   3.2038   7.6341  10.3788  11.2836  11.8567

          k =-0.0833 0.5833 0.7500 (  1726 PWs)   bands (ev):

    -3.0684  -1.2260   1.5206   3.1120   7.5506  10.4376  11.2822  11.9058

          k =-0.7500 0.0833 0.5833 (  1726 PWs)   bands (ev):

    -3.0331  -1.2812   1.4738   3.1808   7.6413  10.3234  11.2506  11.8819

          k = 0.2500-0.4167 0.5833 (  1733 PWs)   bands (ev):

    -4.0070  -0.7602   2.9221   4.0303   7.8353   8.7694   9.7979  11.9702

          k =-0.2500 0.4167 0.5833 (  1733 PWs)   bands (ev):

    -4.0146  -0.7463   3.0268   3.8948   7.8849   8.6300   9.9341  11.9673

          k =-0.5833 0.2500 0.4167 (  1733 PWs)   bands (ev):

    -4.0061  -0.7689   3.0029   3.9466   7.8695   8.6160   9.9417  12.0600

          k =-0.9167 0.0833 0.0833 (  1719 PWs)   bands (ev):

    -2.7677  -1.5955   2.4962   2.7773   6.2929   6.9064  14.1462  14.1663

          k =-0.0833-0.9167-0.0833 (  1719 PWs)   bands (ev):

    -2.7893  -1.5614   2.4780   2.7785   6.2991   6.9062  14.0879  14.1180

          k =-0.7500 0.2500-0.0833 (  1716 PWs)   bands (ev):

    -3.6483  -0.5430   2.1859   3.0276   7.2326   8.4167  11.0055  12.6514

          k = 0.7500-0.2500-0.0833 (  1716 PWs)   bands (ev):

    -3.6469  -0.5580   2.2793   2.9488   7.1680   8.4762  11.0028  12.7401

          k = 0.0833-0.7500-0.2500 (  1716 PWs)   bands (ev):

    -3.6622  -0.5025   2.2165   2.9565   7.2548   8.4142  10.9140  12.7225

          k =-0.5833 0.0833 0.0833 (  1718 PWs)   bands (ev):

    -4.6724   0.9569   3.2986   3.3726   6.6894   8.2504  11.2163  11.4897

          k =-0.0833-0.5833-0.0833 (  1718 PWs)   bands (ev):

    -4.6818   1.0432   3.1938   3.3788   6.7042   8.2701  11.1609  11.4022

          k = 0.2500 0.2500 0.2500 (  1733 PWs)   bands (ev):

    -5.3622   1.6828   4.6376   4.6376   7.1567   8.8599   8.8599  11.7996

          k = 0.4167 0.4167 0.0833 (  1724 PWs)   bands (ev):

    -4.7286   0.7433   2.6616   4.4657   8.0130   9.3689   9.4339  11.2948

          k =-0.4167-0.4167 0.0833 (  1724 PWs)   bands (ev):

    -4.7194   0.6708   2.7296   4.4520   8.0308   9.4519   9.4604  11.2423

          k =-0.4167-0.4167 0.9167 (  1729 PWs)   bands (ev):

    -3.6266  -0.7215   1.7075   3.7411   7.4254  10.6623  10.7152  12.2181

          k = 0.4167 0.4167 0.9167 (  1729 PWs)   bands (ev):

    -3.6512  -0.6401   1.6461   3.7491   7.4262  10.5986  10.6211  12.3107

          k =-0.2500-0.2500 0.7500 (  1722 PWs)   bands (ev):

    -3.5505  -0.8605   2.1880   3.2990   6.9766   9.8477  10.8628  11.3040

          k = 0.2500 0.2500 0.7500 (  1722 PWs)   bands (ev):

    -3.6025  -0.7091   2.0709   3.3110   6.9820   9.8574  10.8216  11.1718

          k = 0.5833 0.2500 0.2500 (  1723 PWs)   bands (ev):

    -4.3428   0.0026   3.0487   3.6610   7.3964   9.4344  10.1887  10.4406

          k =-0.2500 0.5833-0.2500 (  1723 PWs)   bands (ev):

    -4.3080  -0.1488   3.1949   3.6403   7.4076   9.4147  10.3341  10.4705

          k =-0.2500-0.5833 1.0833 (  1722 PWs)   bands (ev):

    -3.4162  -0.7836   1.7504   2.9324   8.5950   9.0766  10.0975  12.5950

          k = 0.2500 0.5833 1.0833 (  1722 PWs)   bands (ev):

    -3.3900  -0.8551   1.7917   2.9342   8.6776   9.0795  10.0081  12.6446

          k =-1.0833-0.2500 0.5833 (  1722 PWs)   bands (ev):

    -3.3638  -0.9184   1.7893   2.9834   8.5799   9.1818  10.0581  12.6796

          k =-0.0833-0.4167 0.9167 (  1721 PWs)   bands (ev):

    -2.5975  -1.6041   1.6629   2.3343   8.3982   9.7416  10.3458  11.6642

          k = 0.0833 0.4167 0.9167 (  1721 PWs)   bands (ev):

    -2.6595  -1.5100   1.6431   2.3196   8.4049   9.7028  10.3218  11.7217

          k =-0.9167-0.0833 0.4167 (  1721 PWs)   bands (ev):

    -2.5671  -1.6408   1.5964   2.4091   8.4805   9.6366  10.3731  11.6571

          k =-1.0833 0.2500 0.2500 (  1722 PWs)   bands (ev):

    -2.8621  -1.3910   1.5154   3.1260   6.7274   9.5743  12.2878  12.3317

          k =-0.2500-1.0833-0.2500 (  1722 PWs)   bands (ev):

    -2.8093  -1.4854   1.5628   3.1221   6.7244   9.5741  12.3671  12.3863

          k = 0.4167 0.4167 0.4167 (  1721 PWs)   bands (ev):

    -4.2855  -0.6788   4.2768   4.2768   6.7273   8.8126   8.8126  13.0921

          k =-0.4167-0.4167 1.2500 (  1726 PWs)   bands (ev):

    -3.7394  -0.9720   2.5394   3.8712   7.5230   9.3033   9.7560  13.1390

          k = 0.4167 0.4167 1.2500 (  1726 PWs)   bands (ev):

    -3.6741  -1.1330   2.6495   3.8473   7.5334   9.3380   9.8987  13.1714

     the Fermi energy is     5.6831 ev

!    total energy              =     -93.52602853 Ry
     total all-electron energy =     -1160.217758 Ry
     estimated scf accuracy    <          1.1E-09 Ry
     smearing contrib. (-TS)   =      -0.21552691 Ry
     internal energy E=F+TS    =     -93.31050161 Ry

     The total energy is F=E-TS. E is the sum of the following terms:
     one-electron contribution =       5.40061960 Ry
     hartree contribution      =       1.08417949 Ry
     xc contribution           =     -12.19364860 Ry
     ewald contribution        =     -16.42741337 Ry
     one-center paw contrib.   =     -71.17423873 Ry

     convergence has been achieved in   6 iterations

     Forces acting on atoms (cartesian axes, Ry/au):

     atom    1 type  1   force =     0.00522090    0.00522090    0.00522090
     atom    2 type  1   force =    -0.00522090   -0.00522090   -0.00522090

     Total force =     0.012789     Total SCF correction =     0.000007


     Computing stress (Cartesian axis) and pressure

          total   stress  (Ry/bohr**3)                   (kbar)     P=        0.42
   0.00000284  -0.00003955  -0.00003955            0.42       -5.82       -5.82
  -0.00003955   0.00000284  -0.00003955           -5.82        0.42       -5.82
  -0.00003955  -0.00003955   0.00000284           -5.82       -5.82        0.42


     BFGS Geometry Optimization
     Energy error            =      2.3E-04 Ry
     Gradient error          =      5.2E-03 Ry/Bohr
     Cell gradient error     =      5.8E+00 kbar

     number of scf cycles    =   1
     number of bfgs steps    =   0

     enthalpy           new  =     -93.5260285279 Ry

     new trust radius        =       0.0090428568 bohr
ibrav =      2
 celldm(1) =     10.50384940
Input lattice vectors:
    -0.50052996     0.00000000     0.50052996
    -0.00098887     0.49954109     0.49954109
    -0.50052996     0.50052996     0.00000000
New lattice vectors in INITIAL alat:
    -0.50052996     0.00000000     0.50052996
     0.00000000     0.50052996     0.50052996
    -0.50052996     0.50052996     0.00000000
New lattice vectors in NEW alat (for information only):
    -0.50000000     0.00000000     0.50000000
     0.00000000     0.50000000     0.50000000
    -0.50000000     0.50000000     0.00000000
Discrepancy in bohr =     0.000000    0.001713    0.000000

Atomic positions rescaled with new alat:
Si               0.0004975728        0.0004975728        0.0004975728
Si               0.2529499613        0.2529499613        0.2529499613
     new conv_thr            =       0.0000000100 Ry

     new unit-cell volume =    289.72466 a.u.^3 (    42.93277 Ang^3 )
     density =      2.17256 g/cm^3

CELL_PARAMETERS (alat= 10.49272791)
  -0.500529962   0.000000000   0.500529962
   0.000000000   0.500529962   0.500529962
  -0.500529962   0.500529962   0.000000000

ATOMIC_POSITIONS (alat)
Si               0.0004981002        0.0004981002        0.0004981002
Si               0.2532180689        0.2532180689        0.2532180689



     Writing config-only to output data dir ./silicon/silicon.save/ :
     XML data file
     NEW-OLD atomic charge density approx. for the potential
     New effective cutoffs (rho, wfc):  299.14   49.88

     total cpu time spent up to now is        4.4 secs

     Self-consistent Calculation

     iteration #  1     ecut=    50.00 Ry     beta= 0.70
     Davidson diagonalization with overlap
     ethr =  1.00E-06,  avg # of iterations =  4.2

     Threshold (ethr) on eigenvalues was too large:
     Diagonalizing with lowered threshold

     Davidson diagonalization with overlap
     ethr =  5.69E-08,  avg # of iterations =  3.2

     total cpu time spent up to now is        5.7 secs

     total energy              =     -93.52616432 Ry
     estimated scf accuracy    <       0.00000523 Ry

     iteration #  2     ecut=    50.00 Ry     beta= 0.70
     Davidson diagonalization with overlap
     ethr =  6.54E-08,  avg # of iterations =  1.8

     total cpu time spent up to now is        6.1 secs

     total energy              =     -93.52616505 Ry
     estimated scf accuracy    <       0.00000025 Ry

     iteration #  3     ecut=    50.00 Ry     beta= 0.70
     Davidson diagonalization with overlap
     ethr =  3.11E-09,  avg # of iterations =  2.5

     total cpu time spent up to now is        6.5 secs

     total energy              =     -93.52616509 Ry
     estimated scf accuracy    <       0.00000002 Ry

     iteration #  4     ecut=    50.00 Ry     beta= 0.70
     Davidson diagonalization with overlap
     ethr =  1.94E-10,  avg # of iterations =  3.1

     total cpu time spent up to now is        7.0 secs

     End of self-consistent calculation

          k =-0.0832 0.0832 0.0832 (  1747 PWs)   bands (ev):

    -6.0286   4.4649   5.1698   5.3224   7.8156   8.0826   8.1771   8.7822

          k =-0.2497 0.2497-0.0832 (  1738 PWs)   bands (ev):

    -5.5787   2.4407   4.0768   5.0769   7.8639   8.4849   8.8518  10.6873

          k =-0.4162 0.4162-0.2497 (  1723 PWs)   bands (ev):

    -4.5547  -0.1537   3.6069   4.4701   7.3592   8.8952   9.0597  12.5807

          k = 0.4162-0.4162 0.5827 (  1723 PWs)   bands (ev):

    -3.9135  -1.2135   3.6486   4.1157   7.2156   8.7283   9.0973  13.1324

          k = 0.2497-0.2497 0.4162 (  1722 PWs)   bands (ev):

    -4.9409   0.6507   4.0926   4.2020   7.4877   8.6809   9.4123  11.2177

          k = 0.0832-0.0832 0.2497 (  1742 PWs)   bands (ev):

    -5.8020   3.4220   4.6599   4.7731   7.6890   8.3844   8.9565   9.8082

          k =-0.0832 0.4162 0.0832 (  1734 PWs)   bands (ev):

    -5.3530   2.2340   3.8909   3.9957   7.1561   9.0731   9.9785  10.1250

          k =-0.2497 0.5827-0.0832 (  1721 PWs)   bands (ev):

    -4.4943   0.4465   2.7363   3.6036   7.5090   9.0726   9.8397  11.2257

          k = 0.5827-0.2497 0.7492 (  1724 PWs)   bands (ev):

    -3.4630  -1.1550   2.1670   3.3581   7.7318   9.2639  11.0990  11.5307

          k = 0.4162-0.0832 0.5827 (  1725 PWs)   bands (ev):

    -4.1396  -0.1436   2.1310   3.7913   8.2521   8.9765  10.5027  11.0185

          k = 0.2497 0.0832 0.4162 (  1729 PWs)   bands (ev):

    -5.1479   1.5356   3.3300   4.3991   7.9247   8.6790   9.8035  10.2494

          k =-0.0832 0.7492 0.0832 (  1721 PWs)   bands (ev):

    -3.8283  -0.3380   2.6604   3.0133   6.4074   7.3443  12.6031  12.7260

          k = 0.7492-0.0832 0.9157 (  1716 PWs)   bands (ev):

    -2.7084  -1.6168   1.9482   2.6001   6.9628   8.0827  12.2527  13.5751

          k = 0.5827 0.0832 0.7492 (  1726 PWs)   bands (ev):

    -3.1150  -1.1864   1.4529   3.1027   7.5348  10.3054  11.3072  11.8655

          k = 0.4162 0.2497 0.5827 (  1733 PWs)   bands (ev):

    -4.0661  -0.6615   2.9200   3.8905   7.7802   8.6029   9.8118  11.9980

          k =-0.0832-0.9157 0.0832 (  1719 PWs)   bands (ev):

    -2.7904  -1.6106   2.4106   2.8086   6.3326   6.8194  14.0440  14.0926

          k =-0.2497-0.7492-0.0832 (  1716 PWs)   bands (ev):

    -3.6896  -0.4964   2.1935   2.9174   7.1592   8.4447  10.8901  12.6269

          k =-0.0832-0.5827 0.0832 (  1718 PWs)   bands (ev):

    -4.6902   0.9655   3.1603   3.4149   6.6902   8.2105  11.1511  11.3932

          k =-0.2497 0.2497 0.2497 (  1733 PWs)   bands (ev):

    -5.3635   1.5435   4.5985   4.7281   7.1783   8.7946   8.9275  11.7021

          k =-0.4162 0.4162 0.0832 (  1724 PWs)   bands (ev):

    -4.7236   0.5952   2.6708   4.5313   8.0359   9.2878   9.4738  11.2133

          k = 0.4162-0.4162 0.9157 (  1729 PWs)   bands (ev):

    -3.6202  -0.7953   1.6452   3.7949   7.4694  10.5503  10.6174  12.2065

          k = 0.2497-0.2497 0.7492 (  1722 PWs)   bands (ev):

    -3.5745  -0.8524   2.0666   3.3445   7.0236   9.7548  10.8038  11.1671

          k =-0.2497 0.5827 0.2497 (  1723 PWs)   bands (ev):

    -4.3303  -0.1359   3.0498   3.6979   7.4322   9.4254  10.1916  10.3400

          k = 0.5827-0.2497 1.0822 (  1722 PWs)   bands (ev):

    -3.3859  -0.9255   1.7265   2.9918   8.6050   9.1221   9.9878  12.5457

          k = 0.4162-0.0832 0.9157 (  1721 PWs)   bands (ev):

    -2.6232  -1.6162   1.6134   2.3367   8.4441   9.6189  10.2635  11.6696

          k =-0.2497-1.0822 0.2497 (  1722 PWs)   bands (ev):

    -2.8049  -1.5336   1.4804   3.1604   6.7725   9.4733  12.2345  12.3191

          k =-0.4162 0.4162 0.4162 (  1721 PWs)   bands (ev):

    -4.2528  -0.8365   4.2259   4.3516   6.7407   8.7612   8.9149  13.1092

          k = 0.4162-0.4162 1.2487 (  1726 PWs)   bands (ev):

    -3.6883  -1.1524   2.5415   3.9130   7.5564   9.3155   9.7416  13.0749

          k = 0.0832 0.0832 0.0832 (  1747 PWs)   bands (ev):

    -6.0293   4.5856   5.1750   5.1750   7.7551   8.1632   8.1632   8.7910

          k = 0.2497 0.2497-0.0832 (  1738 PWs)   bands (ev):

    -5.5810   2.4777   4.1202   4.9644   7.8713   8.5775   8.7714  10.6664

          k =-0.2497-0.2497-0.0832 (  1738 PWs)   bands (ev):

    -5.5837   2.5397   4.0533   4.9759   7.8203   8.5370   8.8076  10.6925

          k = 0.4162 0.4162-0.2497 (  1723 PWs)   bands (ev):

    -4.5584  -0.1420   3.6760   4.3717   7.3625   8.9390   9.0399  12.5579

          k =-0.4162-0.4162-0.2497 (  1723 PWs)   bands (ev):

    -4.5793  -0.0550   3.5977   4.3978   7.3193   8.9298   8.9543  12.5908

          k =-0.4162-0.4162 0.5827 (  1723 PWs)   bands (ev):

    -3.9131  -1.2158   3.7351   4.0251   7.2194   8.6421   9.1926  13.1629

          k = 0.4162 0.4162 0.5827 (  1723 PWs)   bands (ev):

    -3.9655  -1.0935   3.6463   4.0524   7.1767   8.6679   9.0781  13.1122

          k =-0.2497-0.2497 0.4162 (  1722 PWs)   bands (ev):

    -4.9388   0.6367   4.0960   4.2181   7.4989   8.5774   9.4991  11.2847

          k = 0.2497 0.2497 0.4162 (  1722 PWs)   bands (ev):

    -4.9542   0.7345   4.1062   4.1168   7.4439   8.6312   9.3918  11.2752

          k =-0.0832-0.0832 0.2497 (  1742 PWs)   bands (ev):

    -5.8013   3.3916   4.5928   4.8848   7.6876   8.3400   9.0076   9.8034

          k = 0.0832 0.0832 0.2497 (  1742 PWs)   bands (ev):

    -5.8036   3.5034   4.6010   4.7390   7.6753   8.3659   8.9728   9.8163

          k = 0.4162 0.0832 0.0832 (  1734 PWs)   bands (ev):

    -5.3557   2.2894   3.8949   3.9295   7.1485   9.0970   9.9446  10.1118

          k =-0.0832 0.4162-0.0832 (  1734 PWs)   bands (ev):

    -5.3515   2.2000   3.9229   4.0073   7.1405   9.0524  10.0084  10.1623

          k = 0.5827 0.2497-0.0832 (  1721 PWs)   bands (ev):

    -4.5021   0.4961   2.7205   3.5603   7.5623   9.0668   9.7571  11.2159

          k =-0.5827-0.2497-0.0832 (  1721 PWs)   bands (ev):

    -4.5088   0.5398   2.6859   3.5600   7.5142   9.1169   9.7579  11.1667

          k = 0.0832 0.5827-0.2497 (  1721 PWs)   bands (ev):

    -4.4955   0.4618   2.6847   3.6407   7.5367   9.0644   9.8343  11.1567

          k =-0.2497-0.5827 0.7492 (  1724 PWs)   bands (ev):

    -3.4644  -1.1475   2.1342   3.3825   7.8004   9.1948  11.1077  11.4578

          k = 0.2497 0.5827 0.7492 (  1724 PWs)   bands (ev):

    -3.5137  -1.0340   2.0948   3.3607   7.7318   9.2049  11.0548  11.5215

          k =-0.7492-0.2497 0.5827 (  1724 PWs)   bands (ev):

    -3.4581  -1.1557   2.0899   3.4384   7.7787   9.2712  11.0280  11.4663

          k =-0.0832-0.4162 0.5827 (  1725 PWs)   bands (ev):

    -4.1256  -0.1937   2.1168   3.8563   8.3149   8.9055  10.5074  11.0558

          k = 0.0832 0.4162 0.5827 (  1725 PWs)   bands (ev):

    -4.1503  -0.0927   2.0884   3.7977   8.2432   8.9328  10.5480  10.9733

          k =-0.5827-0.0832 0.4162 (  1725 PWs)   bands (ev):

    -4.1259  -0.1881   2.0971   3.8734   8.2847   8.9867  10.4939  10.9574

          k = 0.0832-0.2497 0.4162 (  1729 PWs)   bands (ev):

    -5.1395   1.4470   3.3425   4.4895   7.9330   8.7229   9.7971  10.2340

          k =-0.0832 0.2497 0.4162 (  1729 PWs)   bands (ev):

    -5.1437   1.4832   3.3822   4.3915   7.9792   8.6602   9.8253  10.2348

          k =-0.4162 0.0832 0.2497 (  1729 PWs)   bands (ev):

    -5.1389   1.4354   3.3665   4.4766   7.9521   8.6443   9.8547  10.2796

          k = 0.7492 0.0832 0.0832 (  1721 PWs)   bands (ev):

    -3.8350  -0.3151   2.6869   2.9671   6.3832   7.3731  12.5867  12.7002

          k =-0.0832 0.7492-0.0832 (  1721 PWs)   bands (ev):

    -3.8247  -0.3542   2.7279   2.9646   6.3739   7.3693  12.6162  12.7671

          k =-0.0832-0.7492 0.9157 (  1716 PWs)   bands (ev):

    -2.7136  -1.6045   1.8991   2.6380   7.0256   8.0269  12.1953  13.5684

          k = 0.0832 0.7492 0.9157 (  1716 PWs)   bands (ev):

    -2.7405  -1.5666   1.9278   2.5995   6.9663   8.0837  12.2004  13.5972

          k =-0.9157-0.0832 0.7492 (  1716 PWs)   bands (ev):

    -2.6992  -1.6256   1.8927   2.6543   7.0200   8.0281  12.2473  13.5641

          k = 0.0832-0.5827 0.7492 (  1726 PWs)   bands (ev):

    -3.0569  -1.2940   1.4446   3.1647   7.5932  10.3396  11.2477  11.8210

          k =-0.0832 0.5827 0.7492 (  1726 PWs)   bands (ev):

    -3.0853  -1.2510   1.4905   3.0997   7.5329  10.3813  11.2487  11.8554

          k =-0.7492 0.0832 0.5827 (  1726 PWs)   bands (ev):

    -3.0602  -1.2904   1.4578   3.1481   7.5983  10.2991  11.2248  11.8401

          k = 0.2497-0.4162 0.5827 (  1733 PWs)   bands (ev):

    -4.0279  -0.7699   2.9117   3.9777   7.8006   8.7077   9.7838  11.9422

          k =-0.2497 0.4162 0.5827 (  1733 PWs)   bands (ev):

    -4.0333  -0.7599   2.9863   3.8812   7.8358   8.6086   9.8807  11.9403

          k =-0.5827 0.2497 0.4162 (  1733 PWs)   bands (ev):

    -4.0273  -0.7761   2.9702   3.9172   7.8253   8.5979   9.8866  12.0062

          k =-0.9157 0.0832 0.0832 (  1719 PWs)   bands (ev):

    -2.7881  -1.6160   2.4622   2.7632   6.2786   6.8693  14.0910  14.1002

          k =-0.0832-0.9157-0.0832 (  1719 PWs)   bands (ev):

    -2.8037  -1.5916   2.4492   2.7640   6.2831   6.8691  14.0449  14.0705

          k =-0.7492 0.2497-0.0832 (  1716 PWs)   bands (ev):

    -3.6683  -0.5606   2.1762   2.9859   7.1975   8.3944  10.9505  12.6179

          k = 0.7492-0.2497-0.0832 (  1716 PWs)   bands (ev):

    -3.6673  -0.5713   2.2430   2.9295   7.1509   8.4373  10.9485  12.6812

          k = 0.0832-0.7492-0.2497 (  1716 PWs)   bands (ev):

    -3.6782  -0.5316   2.1982   2.9351   7.2131   8.3927  10.8851  12.6687

          k =-0.5827 0.0832 0.0832 (  1718 PWs)   bands (ev):

    -4.6877   0.9393   3.2484   3.3592   6.6674   8.2191  11.1659  11.4331

          k =-0.0832-0.5827-0.0832 (  1718 PWs)   bands (ev):

    -4.6944   1.0009   3.1739   3.3636   6.6778   8.2331  11.1260  11.3709

          k = 0.2497 0.2497 0.2497 (  1733 PWs)   bands (ev):

    -5.3719   1.6305   4.6213   4.6213   7.1288   8.8342   8.8342  11.7348

          k = 0.4162 0.4162 0.0832 (  1724 PWs)   bands (ev):

    -4.7390   0.6924   2.6484   4.4517   7.9855   9.3322   9.4108  11.2414

          k =-0.4162-0.4162 0.0832 (  1724 PWs)   bands (ev):

    -4.7324   0.6412   2.6964   4.4418   7.9988   9.3910   9.4294  11.2036

          k =-0.4162-0.4162 0.9157 (  1729 PWs)   bands (ev):

    -3.6417  -0.7484   1.6771   3.7285   7.4068  10.6163  10.6517  12.1853

          k = 0.4162 0.4162 0.9157 (  1729 PWs)   bands (ev):

    -3.6594  -0.6907   1.6338   3.7343   7.4072  10.5702  10.5853  12.2529

          k =-0.2497-0.2497 0.7492 (  1722 PWs)   bands (ev):

    -3.5723  -0.8697   2.1430   3.2865   6.9610   9.8058  10.8118  11.2408

          k = 0.2497 0.2497 0.7492 (  1722 PWs)   bands (ev):

    -3.6096  -0.7618   2.0597   3.2951   6.9647   9.8128  10.7822  11.1467

          k = 0.5827 0.2497 0.2497 (  1723 PWs)   bands (ev):

    -4.3515  -0.0494   3.0368   3.6441   7.3763   9.3985  10.1674  10.3955

          k =-0.2497 0.5827-0.2497 (  1723 PWs)   bands (ev):

    -4.3266  -0.1573   3.1407   3.6293   7.3850   9.3837  10.2710  10.4172

          k =-0.2497-0.5827 1.0822 (  1722 PWs)   bands (ev):

    -3.4249  -0.8322   1.7360   2.9203   8.5711   9.0556  10.0451  12.5580

          k = 0.2497 0.5827 1.0822 (  1722 PWs)   bands (ev):

    -3.4061  -0.8831   1.7653   2.9214   8.6313   9.0564   9.9812  12.5938

          k =-1.0822-0.2497 0.5827 (  1722 PWs)   bands (ev):

    -3.3874  -0.9284   1.7643   2.9559   8.5615   9.1297  10.0170  12.6186

          k =-0.0832-0.4162 0.9157 (  1721 PWs)   bands (ev):

    -2.6200  -1.6234   1.6364   2.3192   8.3795   9.6932  10.2998  11.6290

          k = 0.0832 0.4162 0.9157 (  1721 PWs)   bands (ev):

    -2.6649  -1.5555   1.6220   2.3091   8.3842   9.6658  10.2823  11.6701

          k =-0.9157-0.0832 0.4162 (  1721 PWs)   bands (ev):

    -2.5986  -1.6493   1.5890   2.3726   8.4390   9.6168  10.3199  11.6241

          k =-1.0822 0.2497 0.2497 (  1722 PWs)   bands (ev):

    -2.8665  -1.4393   1.4973   3.1112   6.7118   9.5300  12.2510  12.2903

          k =-0.2497-1.0822-0.2497 (  1722 PWs)   bands (ev):

    -2.8282  -1.5071   1.5310   3.1084   6.7097   9.5299  12.3157  12.3205

          k = 0.4162 0.4162 0.4162 (  1721 PWs)   bands (ev):

    -4.2904  -0.7302   4.2579   4.2579   6.6977   8.7947   8.7947  13.0676

          k =-0.4162-0.4162 1.2487 (  1726 PWs)   bands (ev):

    -3.7422  -1.0281   2.5267   3.8543   7.5004   9.2771   9.7332  13.0977

          k = 0.4162 0.4162 1.2487 (  1726 PWs)   bands (ev):

    -3.6953  -1.1431   2.6049   3.8372   7.5084   9.3016   9.8348  13.1193

     the Fermi energy is     5.6533 ev

!    total energy              =     -93.52616510 Ry
     total all-electron energy =     -1160.217895 Ry
     estimated scf accuracy    <          1.9E-10 Ry
     smearing contrib. (-TS)   =      -0.21607623 Ry
     internal energy E=F+TS    =     -93.31008886 Ry

     The total energy is F=E-TS. E is the sum of the following terms:
     one-electron contribution =       5.37724173 Ry
     hartree contribution      =       1.08691455 Ry
     xc contribution           =     -12.18994747 Ry
     ewald contribution        =     -16.41044519 Ry
     one-center paw contrib.   =     -71.17385249 Ry

     convergence has been achieved in   4 iterations

     Forces acting on atoms (cartesian axes, Ry/au):

     atom    1 type  1   force =     0.00375376    0.00375376    0.00375376
     atom    2 type  1   force =    -0.00375376   -0.00375376   -0.00375376

     Total force =     0.009195     Total SCF correction =     0.000008


     Computing stress (Cartesian axis) and pressure

          total   stress  (Ry/bohr**3)                   (kbar)     P=       -1.72
  -0.00001170  -0.00002810  -0.00002810           -1.72       -4.13       -4.13
  -0.00002810  -0.00001170  -0.00002810           -4.13       -1.72       -4.13
  -0.00002810  -0.00002810  -0.00001170           -4.13       -4.13       -1.72

     Energy error            =      1.4E-04 Ry
     Gradient error          =      3.8E-03 Ry/Bohr
     Cell gradient error     =      4.1E+00 kbar

     number of scf cycles    =   2
     number of bfgs steps    =   1

     enthalpy           old  =     -93.5260285279 Ry
     enthalpy           new  =     -93.5261650958 Ry

     CASE: enthalpy          _new < enthalpy          _old

     new trust radius        =       0.0099576857 bohr
ibrav =      2
 celldm(1) =     10.51036556
Input lattice vectors:
    -0.50084047     0.00000000     0.50084047
    -0.00010452     0.50073595     0.50073595
    -0.50084047     0.50084047     0.00000000
New lattice vectors in INITIAL alat:
    -0.50084047     0.00000000     0.50084047
     0.00000000     0.50084047     0.50084047
    -0.50084047     0.50084047     0.00000000
New lattice vectors in NEW alat (for information only):
    -0.50000000     0.00000000     0.50000000
     0.00000000     0.50000000     0.50000000
    -0.50000000     0.50000000     0.00000000
Discrepancy in bohr =     0.000000    0.000181    0.000000

Atomic positions rescaled with new alat:
Si               0.0010449028        0.0010449028        0.0010449028
Si               0.2524026313        0.2524026313        0.2524026313
     new conv_thr            =       0.0000000014 Ry

     new unit-cell volume =    290.26420 a.u.^3 (    43.01272 Ang^3 )
     density =      2.16852 g/cm^3

CELL_PARAMETERS (alat= 10.49272791)
  -0.500840470   0.000000000   0.500840470
   0.000000000   0.500840470   0.500840470
  -0.500840470   0.500840470   0.000000000

ATOMIC_POSITIONS (alat)
Si               0.0010466593        0.0010466593        0.0010466593
Si               0.2528269051        0.2528269051        0.2528269051



     Writing config-only to output data dir ./silicon/silicon.save/ :
     XML data file
     NEW-OLD atomic charge density approx. for the potential
     New effective cutoffs (rho, wfc):  298.77   49.82

     total cpu time spent up to now is        7.4 secs

     Self-consistent Calculation

     iteration #  1     ecut=    50.00 Ry     beta= 0.70
     Davidson diagonalization with overlap
     ethr =  1.00E-06,  avg # of iterations =  4.5

     Threshold (ethr) on eigenvalues was too large:
     Diagonalizing with lowered threshold

     Davidson diagonalization with overlap
     ethr =  6.83E-08,  avg # of iterations =  2.5

     total cpu time spent up to now is        8.4 secs

     total energy              =     -93.52625687 Ry
     estimated scf accuracy    <       0.00000600 Ry

     iteration #  2     ecut=    50.00 Ry     beta= 0.70
     Davidson diagonalization with overlap
     ethr =  7.50E-08,  avg # of iterations =  1.8

     total cpu time spent up to now is        8.9 secs

     total energy              =     -93.52625773 Ry
     estimated scf accuracy    <       0.00000030 Ry

     iteration #  3     ecut=    50.00 Ry     beta= 0.70
     Davidson diagonalization with overlap
     ethr =  3.71E-09,  avg # of iterations =  2.3

     total cpu time spent up to now is        9.4 secs

     total energy              =     -93.52625778 Ry
     estimated scf accuracy    <       0.00000002 Ry

     iteration #  4     ecut=    50.00 Ry     beta= 0.70
     Davidson diagonalization with overlap
     ethr =  2.32E-10,  avg # of iterations =  3.5

     total cpu time spent up to now is        9.8 secs

     End of self-consistent calculation

          k =-0.0832 0.0832 0.0832 (  1747 PWs)   bands (ev):

    -6.0347   4.4614   5.1773   5.2611   7.7853   8.0869   8.1403   8.7516

          k =-0.2496 0.2496-0.0832 (  1738 PWs)   bands (ev):

    -5.5863   2.4390   4.0648   5.0332   7.8360   8.4823   8.8152  10.6560

          k =-0.4160 0.4160-0.2496 (  1723 PWs)   bands (ev):

    -4.5664  -0.1544   3.5993   4.4325   7.3310   8.9049   9.0070  12.5553

          k = 0.4160-0.4160 0.5824 (  1723 PWs)   bands (ev):

    -3.9294  -1.2112   3.6441   4.0798   7.1879   8.6997   9.0816  13.1106

          k = 0.2496-0.2496 0.4160 (  1722 PWs)   bands (ev):

    -4.9500   0.6443   4.0972   4.1583   7.4606   8.6465   9.3967  11.2095

          k = 0.0832-0.0832 0.2496 (  1742 PWs)   bands (ev):

    -5.8086   3.4103   4.6379   4.7542   7.6698   8.3518   8.9419   9.7789

          k =-0.0832 0.4160 0.0832 (  1734 PWs)   bands (ev):

    -5.3603   2.2189   3.8906   3.9616   7.1366   9.0482   9.9602  10.1016

          k =-0.2496 0.5824-0.0832 (  1721 PWs)   bands (ev):

    -4.5054   0.4482   2.7109   3.5817   7.5011   9.0551   9.7983  11.1860

          k = 0.5824-0.2496 0.7487 (  1724 PWs)   bands (ev):

    -3.4790  -1.1532   2.1341   3.3552   7.7261   9.2296  11.0645  11.4899

          k = 0.4160-0.0832 0.5824 (  1725 PWs)   bands (ev):

    -4.1470  -0.1630   2.1087   3.7926   8.2415   8.9446  10.4848  10.9876

          k = 0.2496 0.0832 0.4160 (  1729 PWs)   bands (ev):

    -5.1530   1.4924   3.3272   4.3994   7.9151   8.6540   9.7888  10.2285

          k =-0.0832 0.7487 0.0832 (  1721 PWs)   bands (ev):

    -3.8381  -0.3527   2.6577   2.9882   6.3860   7.3336  12.5772  12.6989

          k = 0.7487-0.0832 0.9151 (  1716 PWs)   bands (ev):

    -2.7225  -1.6251   1.9228   2.5971   6.9602   8.0529  12.2139  13.5465

          k = 0.5824 0.0832 0.7487 (  1726 PWs)   bands (ev):

    -3.1106  -1.2306   1.4461   3.1002   7.5305  10.2956  11.2639  11.8286

          k = 0.4160 0.2496 0.5824 (  1733 PWs)   bands (ev):

    -4.0636  -0.7096   2.9177   3.8860   7.7707   8.5970   9.8033  11.9632

          k =-0.0832-0.9151 0.0832 (  1719 PWs)   bands (ev):

    -2.8022  -1.6233   2.4079   2.7845   6.3066   6.8143  14.0224  14.0579

          k =-0.2496-0.7487-0.0832 (  1716 PWs)   bands (ev):

    -3.6933  -0.5309   2.1855   2.9145   7.1517   8.4144  10.8779  12.6097

          k =-0.0832-0.5824 0.0832 (  1718 PWs)   bands (ev):

    -4.6985   0.9497   3.1577   3.3874   6.6704   8.1957  11.1258  11.3690

          k =-0.2496 0.2496 0.2496 (  1733 PWs)   bands (ev):

    -5.3716   1.5380   4.6055   4.6772   7.1484   8.8010   8.8751  11.6738

          k =-0.4160 0.4160 0.0832 (  1724 PWs)   bands (ev):

    -4.7345   0.5959   2.6584   4.4946   8.0045   9.2853   9.4381  11.1900

          k = 0.4160-0.4160 0.9151 (  1729 PWs)   bands (ev):

    -3.6372  -0.7923   1.6366   3.7646   7.4379  10.5453  10.5863  12.1845

          k = 0.2496-0.2496 0.7487 (  1722 PWs)   bands (ev):

    -3.5884  -0.8580   2.0624   3.3173   6.9938   9.7475  10.7769  11.1487

          k =-0.2496 0.5824 0.2496 (  1723 PWs)   bands (ev):

    -4.3412  -0.1425   3.0445   3.6677   7.4025   9.3948  10.1750  10.3342

          k = 0.5824-0.2496 1.0815 (  1722 PWs)   bands (ev):

    -3.4032  -0.9251   1.7250   2.9581   8.5823   9.0862   9.9745  12.5341

          k = 0.4160-0.0832 0.9151 (  1721 PWs)   bands (ev):

    -2.6362  -1.6282   1.6039   2.3230   8.4118   9.6136  10.2511  11.6352

          k =-0.2496-1.0815 0.2496 (  1722 PWs)   bands (ev):

    -2.8259  -1.5338   1.4776   3.1344   6.7431   9.4663  12.2230  12.2856

          k =-0.4160 0.4160 0.4160 (  1721 PWs)   bands (ev):

    -4.2663  -0.8361   4.2336   4.3032   6.7117   8.7724   8.8578  13.0833

          k = 0.4160-0.4160 1.2479 (  1726 PWs)   bands (ev):

    -3.7056  -1.1491   2.5335   3.8814   7.5253   9.2902   9.7285  13.0587

          k = 0.0832 0.0832 0.0832 (  1747 PWs)   bands (ev):

    -6.0351   4.5276   5.1802   5.1802   7.7510   8.1325   8.1325   8.7561

          k = 0.2496 0.2496-0.0832 (  1738 PWs)   bands (ev):

    -5.5876   2.4599   4.0875   4.9718   7.8397   8.5335   8.7711  10.6445

          k =-0.2496-0.2496-0.0832 (  1738 PWs)   bands (ev):

    -5.5891   2.4939   4.0509   4.9783   7.8111   8.5110   8.7915  10.6589

          k = 0.4160 0.4160-0.2496 (  1723 PWs)   bands (ev):

    -4.5685  -0.1478   3.6367   4.3788   7.3328   8.9422   8.9830  12.5414

          k =-0.4160-0.4160-0.2496 (  1723 PWs)   bands (ev):

    -4.5801  -0.0996   3.5935   4.3934   7.3085   8.9219   8.9508  12.5601

          k =-0.4160-0.4160 0.5824 (  1723 PWs)   bands (ev):

    -3.9292  -1.2125   3.6908   4.0308   7.1900   8.6488   9.1376  13.1273

          k = 0.4160 0.4160 0.5824 (  1723 PWs)   bands (ev):

    -3.9585  -1.1445   3.6417   4.0461   7.1660   8.6631   9.0740  13.0995

          k =-0.2496-0.2496 0.4160 (  1722 PWs)   bands (ev):

    -4.9489   0.6365   4.1000   4.1664   7.4668   8.5877   9.4463  11.2466

          k = 0.2496 0.2496 0.4160 (  1722 PWs)   bands (ev):

    -4.9574   0.6907   4.1046   4.1116   7.4360   8.6177   9.3868  11.2414

          k =-0.0832-0.0832 0.2496 (  1742 PWs)   bands (ev):

    -5.8081   3.3929   4.5958   4.8216   7.6694   8.3263   8.9710   9.7760

          k = 0.0832 0.0832 0.2496 (  1742 PWs)   bands (ev):

    -5.8094   3.4550   4.6003   4.7408   7.6621   8.3410   8.9517   9.7833

          k = 0.4160 0.0832 0.0832 (  1734 PWs)   bands (ev):

    -5.3617   2.2494   3.8918   3.9263   7.1323   9.0611   9.9398  10.0962

          k =-0.0832 0.4160-0.0832 (  1734 PWs)   bands (ev):

    -5.3594   2.1997   3.9226   3.9541   7.1280   9.0368   9.9748  10.1242

          k = 0.5824 0.2496-0.0832 (  1721 PWs)   bands (ev):

    -4.5098   0.4759   2.7013   3.5583   7.5307   9.0516   9.7528  11.1805

          k =-0.5824-0.2496-0.0832 (  1721 PWs)   bands (ev):

    -4.5135   0.5000   2.6822   3.5583   7.5038   9.0796   9.7532  11.1533

          k = 0.0832 0.5824-0.2496 (  1721 PWs)   bands (ev):

    -4.5061   0.4568   2.6818   3.6027   7.5167   9.0504   9.7954  11.1477

          k =-0.2496-0.5824 0.7487 (  1724 PWs)   bands (ev):

    -3.4798  -1.1491   2.1161   3.3684   7.7644   9.1910  11.0687  11.4505

          k = 0.2496 0.5824 0.7487 (  1724 PWs)   bands (ev):

    -3.5074  -1.0860   2.0940   3.3568   7.7260   9.1968  11.0398  11.4856

          k =-0.7487-0.2496 0.5824 (  1724 PWs)   bands (ev):

    -3.4763  -1.1536   2.0913   3.3996   7.7525   9.2335  11.0240  11.4552

          k =-0.0832-0.4160 0.5824 (  1725 PWs)   bands (ev):

    -4.1392  -0.1909   2.1014   3.8282   8.2766   8.9050  10.4869  11.0087

          k = 0.0832 0.4160 0.5824 (  1725 PWs)   bands (ev):

    -4.1530  -0.1349   2.0852   3.7962   8.2361   8.9206  10.5094  10.9632

          k =-0.5824-0.0832 0.4160 (  1725 PWs)   bands (ev):

    -4.1394  -0.1878   2.0903   3.8377   8.2603   8.9497  10.4792  10.9542

          k = 0.0832-0.2496 0.4160 (  1729 PWs)   bands (ev):

    -5.1484   1.4434   3.3345   4.4489   7.9202   8.6782   9.7850  10.2200

          k =-0.0832 0.2496 0.4160 (  1729 PWs)   bands (ev):

    -5.1507   1.4636   3.3558   4.3951   7.9457   8.6435   9.8007  10.2203

          k =-0.4160 0.0832 0.2496 (  1729 PWs)   bands (ev):

    -5.1480   1.4368   3.3482   4.4415   7.9312   8.6340   9.8171  10.2453

          k = 0.7487 0.0832 0.0832 (  1721 PWs)   bands (ev):

    -3.8418  -0.3400   2.6721   2.9630   6.3724   7.3497  12.5666  12.6861

          k =-0.0832 0.7487-0.0832 (  1721 PWs)   bands (ev):

    -3.8361  -0.3617   2.6948   2.9616   6.3673   7.3477  12.5830  12.7232

          k =-0.0832-0.7487 0.9151 (  1716 PWs)   bands (ev):

    -2.7253  -1.6183   1.8959   2.6178   6.9953   8.0217  12.1820  13.5426

          k = 0.0832 0.7487 0.9151 (  1716 PWs)   bands (ev):

    -2.7405  -1.5970   1.9115   2.5968   6.9622   8.0535  12.1848  13.5583

          k =-0.9151-0.0832 0.7487 (  1716 PWs)   bands (ev):

    -2.7174  -1.6300   1.8922   2.6269   6.9923   8.0223  12.2110  13.5400

          k = 0.0832-0.5824 0.7487 (  1726 PWs)   bands (ev):

    -3.0782  -1.2904   1.4418   3.1342   7.5633  10.3148  11.2294  11.8050

          k =-0.0832 0.5824 0.7487 (  1726 PWs)   bands (ev):

    -3.0939  -1.2665   1.4668   3.0985   7.5295  10.3380  11.2311  11.8237

          k =-0.7487 0.0832 0.5824 (  1726 PWs)   bands (ev):

    -3.0800  -1.2885   1.4491   3.1250   7.5661  10.2918  11.2170  11.8163

          k = 0.2496-0.4160 0.5824 (  1733 PWs)   bands (ev):

    -4.0423  -0.7697   2.9132   3.9340   7.7824   8.6552   9.7875  11.9320

          k =-0.2496 0.4160 0.5824 (  1733 PWs)   bands (ev):

    -4.0453  -0.7641   2.9546   3.8804   7.8019   8.6004   9.8410  11.9310

          k =-0.5824 0.2496 0.4160 (  1733 PWs)   bands (ev):

    -4.0420  -0.7731   2.9462   3.8999   7.7962   8.5942   9.8446  11.9675

          k =-0.9151 0.0832 0.0832 (  1719 PWs)   bands (ev):

    -2.8010  -1.6263   2.4362   2.7596   6.2763   6.8423  14.0532  14.0573

          k =-0.0832-0.9151-0.0832 (  1719 PWs)   bands (ev):

    -2.8096  -1.6127   2.4290   2.7601   6.2788   6.8421  14.0227  14.0458

          k =-0.7487 0.2496-0.0832 (  1716 PWs)   bands (ev):

    -3.6815  -0.5666   2.1760   2.9522   7.1733   8.3862  10.9115  12.6047

          k = 0.7487-0.2496-0.0832 (  1716 PWs)   bands (ev):

    -3.6809  -0.5725   2.2133   2.9208   7.1472   8.4103  10.9103  12.6398

          k = 0.0832-0.7487-0.2496 (  1716 PWs)   bands (ev):

    -3.6870  -0.5504   2.1883   2.9239   7.1819   8.3853  10.8752  12.6330

          k =-0.5824 0.0832 0.0832 (  1718 PWs)   bands (ev):

    -4.6971   0.9351   3.2061   3.3571   6.6577   8.2006  11.1330  11.3921

          k =-0.0832-0.5824-0.0832 (  1718 PWs)   bands (ev):

    -4.7009   0.9693   3.1647   3.3596   6.6634   8.2083  11.1108  11.3576

          k = 0.2496 0.2496 0.2496 (  1733 PWs)   bands (ev):

    -5.3763   1.5862   4.6183   4.6183   7.1205   8.8232   8.8232  11.6919

          k = 0.4160 0.4160 0.0832 (  1724 PWs)   bands (ev):

    -4.7431   0.6498   2.6457   4.4511   7.9758   9.3095   9.4042  11.2054

          k =-0.4160-0.4160 0.0832 (  1724 PWs)   bands (ev):

    -4.7394   0.6217   2.6720   4.4455   7.9834   9.3420   9.4145  11.1842

          k =-0.4160-0.4160 0.9151 (  1729 PWs)   bands (ev):

    -3.6491  -0.7662   1.6538   3.7283   7.4026  10.5863  10.6014  12.1725

          k = 0.4160 0.4160 0.9151 (  1729 PWs)   bands (ev):

    -3.6590  -0.7342   1.6300   3.7315   7.4028  10.5602  10.5649  12.2111

          k =-0.2496-0.2496 0.7487 (  1722 PWs)   bands (ev):

    -3.5872  -0.8677   2.1044   3.2856   6.9587   9.7767  10.7796  11.1906

          k = 0.2496 0.2496 0.7487 (  1722 PWs)   bands (ev):

    -3.6080  -0.8077   2.0583   3.2904   6.9607   9.7802  10.7635  11.1385

          k = 0.5824 0.2496 0.2496 (  1723 PWs)   bands (ev):

    -4.3529  -0.0946   3.0368   3.6387   7.3711   9.3797  10.1625  10.3646

          k =-0.2496 0.5824-0.2496 (  1723 PWs)   bands (ev):

    -4.3391  -0.1544   3.0943   3.6305   7.3762   9.3713  10.2200  10.3765

          k =-0.2496-0.5824 1.0815 (  1722 PWs)   bands (ev):

    -3.4249  -0.8733   1.7301   2.9188   8.5622   9.0502  10.0066  12.5409

          k = 0.2496 0.5824 1.0815 (  1722 PWs)   bands (ev):

    -3.4144  -0.9015   1.7464   2.9192   8.5962   9.0501   9.9711  12.5612

          k =-1.0815-0.2496 0.5824 (  1722 PWs)   bands (ev):

    -3.4040  -0.9267   1.7462   2.9380   8.5575   9.0910   9.9909  12.5747

          k =-0.0832-0.4160 0.9151 (  1721 PWs)   bands (ev):

    -2.6344  -1.6321   1.6166   2.3135   8.3755   9.6557  10.2708  11.6125

          k = 0.0832 0.4160 0.9151 (  1721 PWs)   bands (ev):

    -2.6599  -1.5940   1.6084   2.3081   8.3781   9.6406  10.2611  11.6352

          k =-0.9151-0.0832 0.4160 (  1721 PWs)   bands (ev):

    -2.6228  -1.6464   1.5902   2.3431   8.4090   9.6123  10.2825  11.6099

          k =-1.0815 0.2496 0.2496 (  1722 PWs)   bands (ev):

    -2.8604  -1.4811   1.4867   3.1075   6.7091   9.4982  12.2318  12.2700

          k =-0.2496-1.0815-0.2496 (  1722 PWs)   bands (ev):

    -2.8387  -1.5191   1.5054   3.1059   6.7080   9.4981  12.2700  12.2841

          k = 0.4160 0.4160 0.4160 (  1721 PWs)   bands (ev):

    -4.2873  -0.7770   4.2516   4.2516   6.6875   8.7911   8.7911  13.0600

          k =-0.4160-0.4160 1.2479 (  1726 PWs)   bands (ev):

    -3.7357  -1.0801   2.5251   3.8494   7.4938   9.2676   9.7254  13.0730

          k = 0.4160 0.4160 1.2479 (  1726 PWs)   bands (ev):

    -3.7094  -1.1440   2.5683   3.8399   7.4985   9.2812   9.7817  13.0831

     the Fermi energy is     5.6359 ev

!    total energy              =     -93.52625778 Ry
     total all-electron energy =     -1160.217988 Ry
     estimated scf accuracy    <          2.1E-10 Ry
     smearing contrib. (-TS)   =      -0.21639042 Ry
     internal energy E=F+TS    =     -93.30986737 Ry

     The total energy is F=E-TS. E is the sum of the following terms:
     one-electron contribution =       5.36361077 Ry
     hartree contribution      =       1.08850613 Ry
     xc contribution           =     -12.18778014 Ry
     ewald contribution        =     -16.40057887 Ry
     one-center paw contrib.   =     -71.17362525 Ry

     convergence has been achieved in   4 iterations

     Forces acting on atoms (cartesian axes, Ry/au):

     atom    1 type  1   force =     0.00211196    0.00211196    0.00211196
     atom    2 type  1   force =    -0.00211196   -0.00211196   -0.00211196

     Total force =     0.005173     Total SCF correction =     0.000009


     Computing stress (Cartesian axis) and pressure

          total   stress  (Ry/bohr**3)                   (kbar)     P=       -2.98
  -0.00002023  -0.00001566  -0.00001566           -2.98       -2.30       -2.30
  -0.00001566  -0.00002023  -0.00001566           -2.30       -2.98       -2.30
  -0.00001566  -0.00001566  -0.00002023           -2.30       -2.30       -2.98

     Energy error            =      9.3E-05 Ry
     Gradient error          =      2.1E-03 Ry/Bohr
     Cell gradient error     =      3.0E+00 kbar

     number of scf cycles    =   3
     number of bfgs steps    =   2

     enthalpy           old  =     -93.5261650958 Ry
     enthalpy           new  =     -93.5262577828 Ry

     CASE: enthalpy          _new < enthalpy          _old

     new trust radius        =       0.0106276402 bohr
ibrav =      2
 celldm(1) =     10.50990057
Input lattice vectors:
    -0.50081831     0.00000000     0.50081831
    -0.00013771     0.50068060     0.50068060
    -0.50081831     0.50081831     0.00000000
New lattice vectors in INITIAL alat:
    -0.50081831     0.00000000     0.50081831
     0.00000000     0.50081831     0.50081831
    -0.50081831     0.50081831     0.00000000
New lattice vectors in NEW alat (for information only):
    -0.50000000     0.00000000     0.50000000
     0.00000000     0.50000000     0.50000000
    -0.50000000     0.50000000     0.00000000
Discrepancy in bohr =     0.000000    0.000239    0.000000

Atomic positions rescaled with new alat:
Si               0.0016286952        0.0016286952        0.0016286952
Si               0.2518188389        0.2518188389        0.2518188389
     new conv_thr            =       0.0000000009 Ry

     new unit-cell volume =    290.22568 a.u.^3 (    43.00701 Ang^3 )
     density =      2.16881 g/cm^3

CELL_PARAMETERS (alat= 10.49272791)
  -0.500818313   0.000000000   0.500818313
   0.000000000   0.500818313   0.500818313
  -0.500818313   0.500818313   0.000000000

ATOMIC_POSITIONS (alat)
Si               0.0016313607        0.0016313607        0.0016313607
Si               0.2522309720        0.2522309720        0.2522309720



     Writing config-only to output data dir ./silicon/silicon.save/ :
     XML data file
     NEW-OLD atomic charge density approx. for the potential
     New effective cutoffs (rho, wfc):  298.79   49.83

     total cpu time spent up to now is       10.2 secs

     Self-consistent Calculation

     iteration #  1     ecut=    50.00 Ry     beta= 0.70
     Davidson diagonalization with overlap
     ethr =  1.00E-06,  avg # of iterations =  4.6

     Threshold (ethr) on eigenvalues was too large:
     Diagonalizing with lowered threshold

     Davidson diagonalization with overlap
     ethr =  7.88E-08,  avg # of iterations =  2.4

     total cpu time spent up to now is       11.3 secs

     total energy              =     -93.52630220 Ry
     estimated scf accuracy    <       0.00000679 Ry

     iteration #  2     ecut=    50.00 Ry     beta= 0.70
     Davidson diagonalization with overlap
     ethr =  8.48E-08,  avg # of iterations =  1.8

     total cpu time spent up to now is       11.7 secs

     total energy              =     -93.52630318 Ry
     estimated scf accuracy    <       0.00000034 Ry

     iteration #  3     ecut=    50.00 Ry     beta= 0.70
     Davidson diagonalization with overlap
     ethr =  4.26E-09,  avg # of iterations =  2.3

     total cpu time spent up to now is       12.1 secs

     total energy              =     -93.52630323 Ry
     estimated scf accuracy    <       0.00000002 Ry

     iteration #  4     ecut=    50.00 Ry     beta= 0.70
     Davidson diagonalization with overlap
     ethr =  2.51E-10,  avg # of iterations =  3.5

     total cpu time spent up to now is       12.6 secs

     End of self-consistent calculation

          k =-0.0832 0.0832 0.0832 (  1747 PWs)   bands (ev):

    -6.0342   4.4777   5.2058   5.2174   7.7806   8.1153   8.1228   8.7546

          k =-0.2496 0.2496-0.0832 (  1738 PWs)   bands (ev):

    -5.5865   2.4567   4.0684   5.0086   7.8338   8.5015   8.8014  10.6562

          k =-0.4160 0.4160-0.2496 (  1723 PWs)   bands (ev):

    -4.5690  -0.1402   3.6077   4.4131   7.3286   8.9339   8.9751  12.5560

          k = 0.4160-0.4160 0.5824 (  1723 PWs)   bands (ev):

    -3.9347  -1.1963   3.6557   4.0621   7.1856   8.6841   9.0915  13.1138

          k = 0.2496-0.2496 0.4160 (  1722 PWs)   bands (ev):

    -4.9506   0.6537   4.1212   4.1304   7.4585   8.6300   9.4058  11.2260

          k = 0.0832-0.0832 0.2496 (  1742 PWs)   bands (ev):

    -5.8080   3.4180   4.6242   4.7644   7.6702   8.3457   8.9514   9.7813

          k =-0.0832 0.4160 0.0832 (  1734 PWs)   bands (ev):

    -5.3597   2.2230   3.9071   3.9449   7.1356   9.0504   9.9613  10.1058

          k =-0.2496 0.5824-0.0832 (  1721 PWs)   bands (ev):

    -4.5074   0.4684   2.6977   3.5768   7.5131   9.0605   9.7794  11.1711

          k = 0.5824-0.2496 0.7488 (  1724 PWs)   bands (ev):

    -3.4837  -1.1370   2.1134   3.3688   7.7417   9.2167  11.0539  11.4740

          k = 0.4160-0.0832 0.5824 (  1725 PWs)   bands (ev):

    -4.1441  -0.1672   2.0991   3.8116   8.2542   8.9332  10.4913  10.9811

          k = 0.2496 0.0832 0.4160 (  1729 PWs)   bands (ev):

    -5.1497   1.4650   3.3408   4.4190   7.9282   8.6545   9.7981  10.2298

          k =-0.0832 0.7488 0.0832 (  1721 PWs)   bands (ev):

    -3.8375  -0.3506   2.6697   2.9779   6.3807   7.3413  12.5790  12.7024

          k = 0.7488-0.0832 0.9152 (  1716 PWs)   bands (ev):

    -2.7245  -1.6178   1.9087   2.6087   6.9765   8.0413  12.2020  13.5492

          k = 0.5824 0.0832 0.7488 (  1726 PWs)   bands (ev):

    -3.0924  -1.2626   1.4510   3.1134   7.5465  10.3098  11.2419  11.8211

          k = 0.4160 0.2496 0.5824 (  1733 PWs)   bands (ev):

    -4.0495  -0.7470   2.9321   3.8989   7.7874   8.6111   9.8182  11.9523

          k =-0.0832-0.9152 0.0832 (  1719 PWs)   bands (ev):

    -2.8022  -1.6208   2.4194   2.7747   6.2956   6.8275  14.0320  14.0565

          k =-0.2496-0.7488-0.0832 (  1716 PWs)   bands (ev):

    -3.6857  -0.5506   2.1910   2.9267   7.1634   8.4028  10.8932  12.6220

          k =-0.0832-0.5824 0.0832 (  1718 PWs)   bands (ev):

    -4.6979   0.9523   3.1707   3.3756   6.6678   8.2009  11.1264  11.3727

          k =-0.2496 0.2496 0.2496 (  1733 PWs)   bands (ev):

    -5.3719   1.5496   4.6325   4.6425   7.1444   8.8311   8.8415  11.6803

          k =-0.4160 0.4160 0.0832 (  1724 PWs)   bands (ev):

    -4.7366   0.6142   2.6598   4.4756   7.9960   9.3052   9.4260  11.1943

          k = 0.4160-0.4160 0.9152 (  1729 PWs)   bands (ev):

    -3.6435  -0.7732   1.6398   3.7506   7.4244  10.5655  10.5804  12.1906

          k = 0.2496-0.2496 0.7488 (  1722 PWs)   bands (ev):

    -3.5913  -0.8483   2.0715   3.3055   6.9806   9.7629  10.7766  11.1565

          k =-0.2496 0.5824 0.2496 (  1723 PWs)   bands (ev):

    -4.3424  -0.1337   3.0551   3.6541   7.3918   9.3890  10.1829  10.3511

          k = 0.5824-0.2496 1.0816 (  1722 PWs)   bands (ev):

    -3.4094  -0.9082   1.7362   2.9377   8.5781   9.0726   9.9858  12.5522

          k = 0.4160-0.0832 0.9152 (  1721 PWs)   bands (ev):

    -2.6367  -1.6247   1.6055   2.3227   8.3979   9.6301  10.2656  11.6266

          k =-0.2496-1.0816 0.2496 (  1722 PWs)   bands (ev):

    -2.8348  -1.5183   1.4863   3.1233   6.7297   9.4818  12.2380  12.2828

          k =-0.4160 0.4160 0.4160 (  1721 PWs)   bands (ev):

    -4.2699  -0.8225   4.2610   4.2708   6.7084   8.8053   8.8172  13.0802

          k = 0.4160-0.4160 1.2480 (  1726 PWs)   bands (ev):

    -3.7119  -1.1323   2.5404   3.8664   7.5146   9.2859   9.7398  13.0698

          k = 0.0832 0.0832 0.0832 (  1747 PWs)   bands (ev):

    -6.0343   4.4869   5.2063   5.2063   7.7757   8.1217   8.1217   8.7552

          k = 0.2496 0.2496-0.0832 (  1738 PWs)   bands (ev):

    -5.5867   2.4597   4.0714   5.0002   7.8342   8.5086   8.7954  10.6546

          k =-0.2496-0.2496-0.0832 (  1738 PWs)   bands (ev):

    -5.5869   2.4644   4.0663   5.0012   7.8302   8.5054   8.7982  10.6566

          k = 0.4160 0.4160-0.2496 (  1723 PWs)   bands (ev):

    -4.5693  -0.1393   3.6128   4.4057   7.3288   8.9435   8.9674  12.5539

          k =-0.4160-0.4160-0.2496 (  1723 PWs)   bands (ev):

    -4.5709  -0.1326   3.6068   4.4078   7.3254   8.9349   8.9686  12.5566

          k =-0.4160-0.4160 0.5824 (  1723 PWs)   bands (ev):

    -3.9347  -1.1965   3.6620   4.0555   7.1859   8.6766   9.0998  13.1161

          k = 0.4160 0.4160 0.5824 (  1723 PWs)   bands (ev):

    -3.9388  -1.1869   3.6552   4.0577   7.1825   8.6786   9.0909  13.1123

          k =-0.2496-0.2496 0.4160 (  1722 PWs)   bands (ev):

    -4.9504   0.6526   4.1226   4.1306   7.4594   8.6216   9.4129  11.2312

          k = 0.2496 0.2496 0.4160 (  1722 PWs)   bands (ev):

    -4.9516   0.6602   4.1220   4.1242   7.4551   8.6258   9.4046  11.2305

          k =-0.0832-0.0832 0.2496 (  1742 PWs)   bands (ev):

    -5.8080   3.4155   4.6179   4.7744   7.6702   8.3420   8.9556   9.7809

          k = 0.0832 0.0832 0.2496 (  1742 PWs)   bands (ev):

    -5.8082   3.4242   4.6185   4.7631   7.6691   8.3441   8.9529   9.7819

          k = 0.4160 0.0832 0.0832 (  1734 PWs)   bands (ev):

    -5.3599   2.2273   3.9070   3.9404   7.1349   9.0522   9.9583  10.1053

          k =-0.0832 0.4160-0.0832 (  1734 PWs)   bands (ev):

    -5.3596   2.2203   3.9157   3.9398   7.1344   9.0488   9.9631  10.1092

          k = 0.5824 0.2496-0.0832 (  1721 PWs)   bands (ev):

    -4.5080   0.4723   2.6962   3.5736   7.5173   9.0599   9.7731  11.1704

          k =-0.5824-0.2496-0.0832 (  1721 PWs)   bands (ev):

    -4.5085   0.4756   2.6936   3.5736   7.5135   9.0639   9.7732  11.1666

          k = 0.0832 0.5824-0.2496 (  1721 PWs)   bands (ev):

    -4.5075   0.4696   2.6935   3.5797   7.5153   9.0598   9.7790  11.1658

          k =-0.2496-0.5824 0.7488 (  1724 PWs)   bands (ev):

    -3.4838  -1.1365   2.1110   3.3706   7.7471   9.2113  11.0543  11.4687

          k = 0.2496 0.5824 0.7488 (  1724 PWs)   bands (ev):

    -3.4877  -1.1276   2.1078   3.3690   7.7417   9.2121  11.0503  11.4736

          k =-0.7488-0.2496 0.5824 (  1724 PWs)   bands (ev):

    -3.4833  -1.1371   2.1075   3.3750   7.7455   9.2172  11.0480  11.4694

          k =-0.0832-0.4160 0.5824 (  1725 PWs)   bands (ev):

    -4.1430  -0.1711   2.0981   3.8165   8.2591   8.9277  10.4915  10.9840

          k = 0.0832 0.4160 0.5824 (  1725 PWs)   bands (ev):

    -4.1449  -0.1633   2.0958   3.8122   8.2533   8.9299  10.4946  10.9777

          k =-0.5824-0.0832 0.4160 (  1725 PWs)   bands (ev):

    -4.1430  -0.1706   2.0966   3.8179   8.2569   8.9338  10.4904  10.9764

          k = 0.0832-0.2496 0.4160 (  1729 PWs)   bands (ev):

    -5.1490   1.4582   3.3419   4.4258   7.9290   8.6579   9.7975  10.2286

          k =-0.0832 0.2496 0.4160 (  1729 PWs)   bands (ev):

    -5.1494   1.4611   3.3447   4.4184   7.9325   8.6531   9.7997  10.2286

          k =-0.4160 0.0832 0.2496 (  1729 PWs)   bands (ev):

    -5.1490   1.4573   3.3438   4.4247   7.9306   8.6517   9.8020  10.2321

          k = 0.7488 0.0832 0.0832 (  1721 PWs)   bands (ev):

    -3.8380  -0.3489   2.6716   2.9744   6.3787   7.3436  12.5773  12.7008

          k =-0.0832 0.7488-0.0832 (  1721 PWs)   bands (ev):

    -3.8372  -0.3519   2.6748   2.9742   6.3780   7.3433  12.5796  12.7060

          k =-0.0832-0.7488 0.9152 (  1716 PWs)   bands (ev):

    -2.7249  -1.6169   1.9050   2.6116   6.9814   8.0369  12.1976  13.5486

          k = 0.0832 0.7488 0.9152 (  1716 PWs)   bands (ev):

    -2.7270  -1.6138   1.9071   2.6087   6.9768   8.0414  12.1980  13.5507

          k =-0.9152-0.0832 0.7488 (  1716 PWs)   bands (ev):

    -2.7238  -1.6185   1.9045   2.6129   6.9810   8.0370  12.2016  13.5481

          k = 0.0832-0.5824 0.7488 (  1726 PWs)   bands (ev):

    -3.0878  -1.2710   1.4505   3.1181   7.5512  10.3125  11.2369  11.8180

          k =-0.0832 0.5824 0.7488 (  1726 PWs)   bands (ev):

    -3.0900  -1.2677   1.4539   3.1131   7.5464  10.3158  11.2373  11.8207

          k =-0.7488 0.0832 0.5824 (  1726 PWs)   bands (ev):

    -3.0881  -1.2707   1.4515   3.1168   7.5516  10.3093  11.2352  11.8197

          k = 0.2496-0.4160 0.5824 (  1733 PWs)   bands (ev):

    -4.0465  -0.7554   2.9315   3.9056   7.7891   8.6193   9.8160  11.9479

          k =-0.2496 0.4160 0.5824 (  1733 PWs)   bands (ev):

    -4.0470  -0.7546   2.9373   3.8981   7.7918   8.6117   9.8234  11.9478

          k =-0.5824 0.2496 0.4160 (  1733 PWs)   bands (ev):

    -4.0465  -0.7559   2.9362   3.9008   7.7910   8.6108   9.8239  11.9528

          k =-0.9152 0.0832 0.0832 (  1719 PWs)   bands (ev):

    -2.8020  -1.6213   2.4233   2.7713   6.2913   6.8315  14.0361  14.0566

          k =-0.0832-0.9152-0.0832 (  1719 PWs)   bands (ev):

    -2.8032  -1.6194   2.4223   2.7714   6.2917   6.8314  14.0319  14.0550

          k =-0.7488 0.2496-0.0832 (  1716 PWs)   bands (ev):

    -3.6841  -0.5555   2.1897   2.9320   7.1665   8.3988  10.8979  12.6213

          k = 0.7488-0.2496-0.0832 (  1716 PWs)   bands (ev):

    -3.6840  -0.5564   2.1949   2.9276   7.1628   8.4022  10.8977  12.6262

          k = 0.0832-0.7488-0.2496 (  1716 PWs)   bands (ev):

    -3.6848  -0.5533   2.1914   2.9280   7.1677   8.3987  10.8928  12.6253

          k =-0.5824 0.0832 0.0832 (  1718 PWs)   bands (ev):

    -4.6977   0.9502   3.1774   3.3715   6.6660   8.2016  11.1272  11.3760

          k =-0.0832-0.5824-0.0832 (  1718 PWs)   bands (ev):

    -4.6982   0.9550   3.1716   3.3718   6.6668   8.2027  11.1242  11.3712

          k = 0.2496 0.2496 0.2496 (  1733 PWs)   bands (ev):

    -5.3725   1.5563   4.6343   4.6343   7.1405   8.8342   8.8342  11.6828

          k = 0.4160 0.4160 0.0832 (  1724 PWs)   bands (ev):

    -4.7378   0.6217   2.6579   4.4696   7.9919   9.3085   9.4215  11.1964

          k =-0.4160-0.4160 0.0832 (  1724 PWs)   bands (ev):

    -4.7373   0.6178   2.6616   4.4688   7.9930   9.3130   9.4230  11.1934

          k =-0.4160-0.4160 0.9152 (  1729 PWs)   bands (ev):

    -3.6451  -0.7695   1.6421   3.7456   7.4194  10.5729  10.5809  12.1892

          k = 0.4160 0.4160 0.9152 (  1729 PWs)   bands (ev):

    -3.6465  -0.7651   1.6388   3.7460   7.4195  10.5679  10.5771  12.1945

          k =-0.2496-0.2496 0.7488 (  1722 PWs)   bands (ev):

    -3.5912  -0.8496   2.0774   3.3011   6.9757   9.7671  10.7767  11.1625

          k = 0.2496 0.2496 0.7488 (  1722 PWs)   bands (ev):

    -3.5941  -0.8413   2.0709   3.3018   6.9759   9.7675  10.7746  11.1552

          k = 0.5824 0.2496 0.2496 (  1723 PWs)   bands (ev):

    -4.3440  -0.1270   3.0539   3.6502   7.3874   9.3868  10.1813  10.3553

          k =-0.2496 0.5824-0.2496 (  1723 PWs)   bands (ev):

    -4.3421  -0.1354   3.0619   3.6490   7.3881   9.3857  10.1893  10.3569

          k =-0.2496-0.5824 1.0816 (  1722 PWs)   bands (ev):

    -3.4124  -0.9009   1.7369   2.9323   8.5751   9.0678   9.9904  12.5531

          k = 0.2496 0.5824 1.0816 (  1722 PWs)   bands (ev):

    -3.4109  -0.9049   1.7391   2.9323   8.5799   9.0678   9.9854  12.5561

          k =-1.0816-0.2496 0.5824 (  1722 PWs)   bands (ev):

    -3.4095  -0.9084   1.7392   2.9349   8.5745   9.0735   9.9881  12.5579

          k =-0.0832-0.4160 0.9152 (  1721 PWs)   bands (ev):

    -2.6364  -1.6252   1.6072   2.3214   8.3928   9.6362  10.2683  11.6234

          k = 0.0832 0.4160 0.9152 (  1721 PWs)   bands (ev):

    -2.6401  -1.6198   1.6060   2.3207   8.3932   9.6340  10.2670  11.6266

          k =-0.9152-0.0832 0.4160 (  1721 PWs)   bands (ev):

    -2.6348  -1.6272   1.6035   2.3256   8.3976   9.6299  10.2700  11.6231

          k =-1.0816 0.2496 0.2496 (  1722 PWs)   bands (ev):

    -2.8397  -1.5109   1.4875   3.1196   6.7249   9.4863  12.2390  12.2808

          k =-0.2496-1.0816-0.2496 (  1722 PWs)   bands (ev):

    -2.8366  -1.5163   1.4901   3.1194   6.7247   9.4863  12.2443  12.2828

          k = 0.4160 0.4160 0.4160 (  1721 PWs)   bands (ev):

    -4.2728  -0.8143   4.2636   4.2636   6.7050   8.8079   8.8079  13.0769

          k =-0.4160-0.4160 1.2480 (  1726 PWs)   bands (ev):

    -3.7162  -1.1226   2.5392   3.8620   7.5101   9.2825   9.7396  13.0719

          k = 0.4160 0.4160 1.2480 (  1726 PWs)   bands (ev):

    -3.7125  -1.1316   2.5452   3.8607   7.5108   9.2845   9.7475  13.0734

     the Fermi energy is     5.6372 ev

!    total energy              =     -93.52630324 Ry
     total all-electron energy =     -1160.218033 Ry
     estimated scf accuracy    <          2.3E-10 Ry
     smearing contrib. (-TS)   =      -0.21634287 Ry
     internal energy E=F+TS    =     -93.30996036 Ry

     The total energy is F=E-TS. E is the sum of the following terms:
     one-electron contribution =       5.36467465 Ry
     hartree contribution      =       1.08834512 Ry
     xc contribution           =     -12.18791133 Ry
     ewald contribution        =     -16.40144046 Ry
     one-center paw contrib.   =     -71.17362835 Ry

     convergence has been achieved in   4 iterations

     Forces acting on atoms (cartesian axes, Ry/au):

     atom    1 type  1   force =     0.00030293    0.00030293    0.00030293
     atom    2 type  1   force =    -0.00030293   -0.00030293   -0.00030293

     Total force =     0.000742     Total SCF correction =     0.000010


     Computing stress (Cartesian axis) and pressure

          total   stress  (Ry/bohr**3)                   (kbar)     P=       -2.95
  -0.00002008  -0.00000226  -0.00000226           -2.95       -0.33       -0.33
  -0.00000226  -0.00002008  -0.00000226           -0.33       -2.95       -0.33
  -0.00000226  -0.00000226  -0.00002008           -0.33       -0.33       -2.95

     Energy error            =      4.5E-05 Ry
     Gradient error          =      3.0E-04 Ry/Bohr
     Cell gradient error     =      3.0E+00 kbar

     number of scf cycles    =   4
     number of bfgs steps    =   3

     enthalpy           old  =     -93.5262577828 Ry
     enthalpy           new  =     -93.5263032355 Ry

     CASE: enthalpy          _new < enthalpy          _old

     new trust radius        =       0.0022556697 bohr
ibrav =      2
 celldm(1) =     10.50406145
Input lattice vectors:
    -0.50054007     0.00000000     0.50054007
    -0.00009335     0.50044672     0.50044672
    -0.50054007     0.50054007     0.00000000
New lattice vectors in INITIAL alat:
    -0.50054007     0.00000000     0.50054007
     0.00000000     0.50054007     0.50054007
    -0.50054007     0.50054007     0.00000000
New lattice vectors in NEW alat (for information only):
    -0.50000000     0.00000000     0.50000000
     0.00000000     0.50000000     0.50000000
    -0.50000000     0.50000000     0.00000000
Discrepancy in bohr =     0.000000    0.000162    0.000000

Atomic positions rescaled with new alat:
Si               0.0017134156        0.0017134156        0.0017134156
Si               0.2517341185        0.2517341185        0.2517341185
     new conv_thr            =       0.0000000003 Ry

     new unit-cell volume =    289.74221 a.u.^3 (    42.93537 Ang^3 )
     density =      2.17243 g/cm^3

CELL_PARAMETERS (alat= 10.49272791)
  -0.500540067   0.000000000   0.500540067
   0.000000000   0.500540067   0.500540067
  -0.500540067   0.500540067   0.000000000

ATOMIC_POSITIONS (alat)
Si               0.0017152663        0.0017152663        0.0017152663
Si               0.2520060249        0.2520060249        0.2520060249



     Writing config-only to output data dir ./silicon/silicon.save/ :
     XML data file
     NEW-OLD atomic charge density approx. for the potential
     New effective cutoffs (rho, wfc):  299.12   49.88

     total cpu time spent up to now is       13.0 secs

     Self-consistent Calculation

     iteration #  1     ecut=    50.00 Ry     beta= 0.70
     Davidson diagonalization with overlap
     ethr =  1.00E-06,  avg # of iterations =  2.0

     Threshold (ethr) on eigenvalues was too large:
     Diagonalizing with lowered threshold

     Davidson diagonalization with overlap
     ethr =  2.08E-09,  avg # of iterations =  5.5

     total cpu time spent up to now is       14.1 secs

     total energy              =     -93.52631218 Ry
     estimated scf accuracy    <       0.00000022 Ry

     iteration #  2     ecut=    50.00 Ry     beta= 0.70
     Davidson diagonalization with overlap
     ethr =  2.73E-09,  avg # of iterations =  1.8

     total cpu time spent up to now is       14.5 secs

     total energy              =     -93.52631219 Ry
     estimated scf accuracy    <          8.5E-09 Ry

     iteration #  3     ecut=    50.00 Ry     beta= 0.70
     Davidson diagonalization with overlap
     ethr =  1.07E-10,  avg # of iterations =  2.7

     total cpu time spent up to now is       15.1 secs

     total energy              =     -93.52631219 Ry
     estimated scf accuracy    <          4.2E-10 Ry

     iteration #  4     ecut=    50.00 Ry     beta= 0.70
     Davidson diagonalization with overlap
     ethr =  5.27E-12,  avg # of iterations =  3.2

     total cpu time spent up to now is       15.7 secs

     End of self-consistent calculation

          k =-0.0832 0.0832 0.0832 (  1747 PWs)   bands (ev):

    -6.0285   4.4965   5.2258   5.2271   7.8024   8.1368   8.1376   8.7828

          k =-0.2497 0.2497-0.0832 (  1738 PWs)   bands (ev):

    -5.5803   2.4746   4.0828   5.0211   7.8557   8.5218   8.8183  10.6824

          k =-0.4162 0.4162-0.2497 (  1723 PWs)   bands (ev):

    -4.5614  -0.1266   3.6228   4.4254   7.3500   8.9535   8.9886  12.5795

          k = 0.4162-0.4162 0.5827 (  1723 PWs)   bands (ev):

    -3.9261  -1.1845   3.6715   4.0741   7.2067   8.6974   9.1098  13.1353

          k = 0.2497-0.2497 0.4162 (  1722 PWs)   bands (ev):

    -4.9434   0.6678   4.1395   4.1408   7.4793   8.6451   9.4253  11.2480

          k = 0.0832-0.0832 0.2497 (  1742 PWs)   bands (ev):

    -5.8020   3.4355   4.6365   4.7821   7.6873   8.3675   8.9716   9.8080

          k =-0.0832 0.4162 0.0832 (  1734 PWs)   bands (ev):

    -5.3530   2.2399   3.9233   3.9566   7.1512   9.0733   9.9796  10.1269

          k =-0.2497 0.5827-0.0832 (  1721 PWs)   bands (ev):

    -4.4998   0.4856   2.7075   3.5895   7.5311   9.0805   9.7959  11.1904

          k = 0.5827-0.2497 0.7492 (  1724 PWs)   bands (ev):

    -3.4744  -1.1236   2.1219   3.3836   7.7610   9.2335  11.0739  11.4920

          k = 0.4162-0.0832 0.5827 (  1725 PWs)   bands (ev):

    -4.1350  -0.1547   2.1086   3.8281   8.2752   8.9491  10.5128  11.0000

          k = 0.2497 0.0832 0.4162 (  1729 PWs)   bands (ev):

    -5.1423   1.4757   3.3557   4.4368   7.9483   8.6763   9.8189  10.2480

          k =-0.0832 0.7492 0.0832 (  1721 PWs)   bands (ev):

    -3.8285  -0.3364   2.6830   2.9888   6.3941   7.3571  12.6037  12.7263

          k = 0.7492-0.0832 0.9157 (  1716 PWs)   bands (ev):

    -2.7141  -1.6044   1.9167   2.6219   6.9937   8.0558  12.2234  13.5757

          k = 0.5827 0.0832 0.7492 (  1726 PWs)   bands (ev):

    -3.0792  -1.2552   1.4611   3.1276   7.5649  10.3312  11.2594  11.8434

          k = 0.4162 0.2497 0.5827 (  1733 PWs)   bands (ev):

    -4.0385  -0.7415   2.9473   3.9147   7.8106   8.6292   9.8390  11.9714

          k =-0.0832-0.9157 0.0832 (  1719 PWs)   bands (ev):

    -2.7918  -1.6083   2.4323   2.7854   6.3076   6.8438  14.0590  14.0837

          k =-0.2497-0.7492-0.0832 (  1716 PWs)   bands (ev):

    -3.6754  -0.5399   2.2025   2.9405   7.1805   8.4176  10.9172  12.6474

          k =-0.0832-0.5827 0.0832 (  1718 PWs)   bands (ev):

    -4.6902   0.9681   3.1851   3.3869   6.6823   8.2180  11.1489  11.3950

          k =-0.2497 0.2497 0.2497 (  1733 PWs)   bands (ev):

    -5.3653   1.5650   4.6515   4.6526   7.1659   8.8532   8.8543  11.7102

          k =-0.4162 0.4162 0.0832 (  1724 PWs)   bands (ev):

    -4.7293   0.6305   2.6718   4.4879   8.0152   9.3263   9.4435  11.2181

          k = 0.4162-0.4162 0.9157 (  1729 PWs)   bands (ev):

    -3.6348  -0.7581   1.6501   3.7623   7.4389  10.5877  10.6013  12.2157

          k = 0.2497-0.2497 0.7492 (  1722 PWs)   bands (ev):

    -3.5822  -0.8346   2.0838   3.3168   6.9938   9.7833  10.7998  11.1776

          k =-0.2497 0.5827 0.2497 (  1723 PWs)   bands (ev):

    -4.3343  -0.1201   3.0698   3.6657   7.4070   9.4100  10.2028  10.3715

          k = 0.5827-0.2497 1.0822 (  1722 PWs)   bands (ev):

    -3.4004  -0.8930   1.7478   2.9467   8.5947   9.0891  10.0071  12.5784

          k = 0.4162-0.0832 0.9157 (  1721 PWs)   bands (ev):

    -2.6257  -1.6119   1.6151   2.3334   8.4127   9.6498  10.2891  11.6474

          k =-0.2497-1.0822 0.2497 (  1722 PWs)   bands (ev):

    -2.8253  -1.5041   1.4967   3.1344   6.7422   9.5019  12.2620  12.3077

          k =-0.4162 0.4162 0.4162 (  1721 PWs)   bands (ev):

    -4.2618  -0.8104   4.2797   4.2808   6.7298   8.8262   8.8275  13.0993

          k = 0.4162-0.4162 1.2487 (  1726 PWs)   bands (ev):

    -3.7032  -1.1195   2.5538   3.8782   7.5311   9.3046   9.7593  13.0941

          k = 0.0832 0.0832 0.0832 (  1747 PWs)   bands (ev):

    -6.0285   4.4975   5.2259   5.2259   7.8019   8.1375   8.1375   8.7829

          k = 0.2497 0.2497-0.0832 (  1738 PWs)   bands (ev):

    -5.5803   2.4749   4.0831   5.0201   7.8557   8.5226   8.8177  10.6822

          k =-0.2497-0.2497-0.0832 (  1738 PWs)   bands (ev):

    -5.5803   2.4754   4.0826   5.0202   7.8553   8.5223   8.8180  10.6824

          k = 0.4162 0.4162-0.2497 (  1723 PWs)   bands (ev):

    -4.5614  -0.1265   3.6233   4.4246   7.3500   8.9545   8.9878  12.5793

          k =-0.4162-0.4162-0.2497 (  1723 PWs)   bands (ev):

    -4.5616  -0.1258   3.6227   4.4248   7.3497   8.9536   8.9879  12.5796

          k =-0.4162-0.4162 0.5827 (  1723 PWs)   bands (ev):

    -3.9261  -1.1846   3.6722   4.0734   7.2067   8.6966   9.1108  13.1355

          k = 0.4162 0.4162 0.5827 (  1723 PWs)   bands (ev):

    -3.9266  -1.1835   3.6714   4.0737   7.2064   8.6968   9.1098  13.1351

          k =-0.2497-0.2497 0.4162 (  1722 PWs)   bands (ev):

    -4.9434   0.6677   4.1400   4.1405   7.4794   8.6442   9.4261  11.2486

          k = 0.2497 0.2497 0.4162 (  1722 PWs)   bands (ev):

    -4.9435   0.6685   4.1395   4.1402   7.4790   8.6447   9.4252  11.2485

          k =-0.0832-0.0832 0.2497 (  1742 PWs)   bands (ev):

    -5.8020   3.4352   4.6358   4.7832   7.6873   8.3671   8.9721   9.8079

          k = 0.0832 0.0832 0.2497 (  1742 PWs)   bands (ev):

    -5.8020   3.4362   4.6359   4.7819   7.6872   8.3673   8.9718   9.8081

          k = 0.4162 0.0832 0.0832 (  1734 PWs)   bands (ev):

    -5.3530   2.2403   3.9233   3.9561   7.1511   9.0735   9.9792  10.1268

          k =-0.0832 0.4162-0.0832 (  1734 PWs)   bands (ev):

    -5.3530   2.2396   3.9242   3.9560   7.1511   9.0731   9.9798  10.1273

          k = 0.5827 0.2497-0.0832 (  1721 PWs)   bands (ev):

    -4.4998   0.4860   2.7074   3.5891   7.5316   9.0804   9.7952  11.1903

          k =-0.5827-0.2497-0.0832 (  1721 PWs)   bands (ev):

    -4.4999   0.4863   2.7071   3.5891   7.5312   9.0808   9.7952  11.1899

          k = 0.0832 0.5827-0.2497 (  1721 PWs)   bands (ev):

    -4.4998   0.4857   2.7071   3.5898   7.5314   9.0804   9.7959  11.1898

          k =-0.2497-0.5827 0.7492 (  1724 PWs)   bands (ev):

    -3.4744  -1.1236   2.1216   3.3838   7.7616   9.2329  11.0739  11.4915

          k = 0.2497 0.5827 0.7492 (  1724 PWs)   bands (ev):

    -3.4748  -1.1226   2.1213   3.3836   7.7610   9.2330  11.0735  11.4920

          k =-0.7492-0.2497 0.5827 (  1724 PWs)   bands (ev):

    -3.4743  -1.1236   2.1213   3.3843   7.7614   9.2335  11.0732  11.4915

          k =-0.0832-0.4162 0.5827 (  1725 PWs)   bands (ev):

    -4.1349  -0.1552   2.1085   3.8286   8.2757   8.9485  10.5129  11.0003

          k = 0.0832 0.4162 0.5827 (  1725 PWs)   bands (ev):

    -4.1351  -0.1543   2.1082   3.8282   8.2751   8.9488  10.5132  10.9997

          k =-0.5827-0.0832 0.4162 (  1725 PWs)   bands (ev):

    -4.1349  -0.1551   2.1083   3.8288   8.2755   8.9492  10.5127  10.9995

          k = 0.0832-0.2497 0.4162 (  1729 PWs)   bands (ev):

    -5.1422   1.4750   3.3558   4.4375   7.9484   8.6767   9.8188  10.2478

          k =-0.0832 0.2497 0.4162 (  1729 PWs)   bands (ev):

    -5.1422   1.4753   3.3561   4.4367   7.9487   8.6761   9.8191  10.2478

          k =-0.4162 0.0832 0.2497 (  1729 PWs)   bands (ev):

    -5.1422   1.4749   3.3560   4.4374   7.9485   8.6760   9.8193  10.2482

          k = 0.7492 0.0832 0.0832 (  1721 PWs)   bands (ev):

    -3.8286  -0.3362   2.6832   2.9884   6.3938   7.3574  12.6035  12.7262

          k =-0.0832 0.7492-0.0832 (  1721 PWs)   bands (ev):

    -3.8285  -0.3365   2.6836   2.9884   6.3938   7.3574  12.6038  12.7267

          k =-0.0832-0.7492 0.9157 (  1716 PWs)   bands (ev):

    -2.7141  -1.6043   1.9163   2.6222   6.9942   8.0553  12.2229  13.5756

          k = 0.0832 0.7492 0.9157 (  1716 PWs)   bands (ev):

    -2.7144  -1.6040   1.9166   2.6219   6.9937   8.0558  12.2229  13.5758

          k =-0.9157-0.0832 0.7492 (  1716 PWs)   bands (ev):

    -2.7140  -1.6045   1.9163   2.6224   6.9942   8.0553  12.2233  13.5755

          k = 0.0832-0.5827 0.7492 (  1726 PWs)   bands (ev):

    -3.0787  -1.2561   1.4611   3.1282   7.5655  10.3315  11.2589  11.8431

          k =-0.0832 0.5827 0.7492 (  1726 PWs)   bands (ev):

    -3.0789  -1.2557   1.4614   3.1276   7.5649  10.3319  11.2589  11.8434

          k =-0.7492 0.0832 0.5827 (  1726 PWs)   bands (ev):

    -3.0787  -1.2560   1.4612   3.1280   7.5655  10.3312  11.2587  11.8433

          k = 0.2497-0.4162 0.5827 (  1733 PWs)   bands (ev):

    -4.0382  -0.7424   2.9472   3.9155   7.8108   8.6301   9.8388  11.9710

          k =-0.2497 0.4162 0.5827 (  1733 PWs)   bands (ev):

    -4.0383  -0.7423   2.9479   3.9146   7.8111   8.6292   9.8396  11.9709

          k =-0.5827 0.2497 0.4162 (  1733 PWs)   bands (ev):

    -4.0382  -0.7425   2.9478   3.9149   7.8110   8.6291   9.8397  11.9715

          k =-0.9157 0.0832 0.0832 (  1719 PWs)   bands (ev):

    -2.7917  -1.6083   2.4327   2.7851   6.3071   6.8442  14.0595  14.0837

          k =-0.0832-0.9157-0.0832 (  1719 PWs)   bands (ev):

    -2.7919  -1.6081   2.4326   2.7851   6.3072   6.8442  14.0590  14.0836

          k =-0.7492 0.2497-0.0832 (  1716 PWs)   bands (ev):

    -3.6752  -0.5404   2.2024   2.9411   7.1808   8.4172  10.9177  12.6474

          k = 0.7492-0.2497-0.0832 (  1716 PWs)   bands (ev):

    -3.6752  -0.5405   2.2030   2.9406   7.1804   8.4175  10.9176  12.6479

          k = 0.0832-0.7492-0.2497 (  1716 PWs)   bands (ev):

    -3.6753  -0.5402   2.2026   2.9406   7.1809   8.4172  10.9171  12.6478

          k =-0.5827 0.0832 0.0832 (  1718 PWs)   bands (ev):

    -4.6902   0.9678   3.1858   3.3865   6.6821   8.2180  11.1490  11.3954

          k =-0.0832-0.5827-0.0832 (  1718 PWs)   bands (ev):

    -4.6903   0.9684   3.1852   3.3865   6.6822   8.2182  11.1487  11.3949

          k = 0.2497 0.2497 0.2497 (  1733 PWs)   bands (ev):

    -5.3654   1.5657   4.6517   4.6517   7.1654   8.8536   8.8536  11.7104

          k = 0.4162 0.4162 0.0832 (  1724 PWs)   bands (ev):

    -4.7294   0.6313   2.6716   4.4872   8.0148   9.3266   9.4430  11.2183

          k =-0.4162-0.4162 0.0832 (  1724 PWs)   bands (ev):

    -4.7294   0.6309   2.6720   4.4871   8.0149   9.3271   9.4431  11.2180

          k =-0.4162-0.4162 0.9157 (  1729 PWs)   bands (ev):

    -3.6350  -0.7577   1.6504   3.7618   7.4384  10.5885  10.6014  12.2155

          k = 0.4162 0.4162 0.9157 (  1729 PWs)   bands (ev):

    -3.6352  -0.7572   1.6500   3.7618   7.4384  10.5880  10.6010  12.2161

          k =-0.2497-0.2497 0.7492 (  1722 PWs)   bands (ev):

    -3.5822  -0.8348   2.0844   3.3163   6.9932   9.7838  10.7998  11.1782

          k = 0.2497 0.2497 0.7492 (  1722 PWs)   bands (ev):

    -3.5825  -0.8338   2.0837   3.3164   6.9933   9.7838  10.7996  11.1774

          k = 0.5827 0.2497 0.2497 (  1723 PWs)   bands (ev):

    -4.3345  -0.1194   3.0696   3.6653   7.4066   9.4097  10.2027  10.3719

          k =-0.2497 0.5827-0.2497 (  1723 PWs)   bands (ev):

    -4.3342  -0.1203   3.0705   3.6651   7.4066   9.4096  10.2035  10.3721

          k =-0.2497-0.5827 1.0822 (  1722 PWs)   bands (ev):

    -3.4008  -0.8922   1.7479   2.9461   8.5944   9.0886  10.0076  12.5785

          k = 0.2497 0.5827 1.0822 (  1722 PWs)   bands (ev):

    -3.4006  -0.8926   1.7481   2.9461   8.5949   9.0886  10.0071  12.5789

          k =-1.0822-0.2497 0.5827 (  1722 PWs)   bands (ev):

    -3.4004  -0.8930   1.7481   2.9464   8.5943   9.0892  10.0074  12.5790

          k =-0.0832-0.4162 0.9157 (  1721 PWs)   bands (ev):

    -2.6257  -1.6119   1.6152   2.3333   8.4121   9.6505  10.2894  11.6471

          k = 0.0832 0.4162 0.9157 (  1721 PWs)   bands (ev):

    -2.6261  -1.6113   1.6151   2.3332   8.4122   9.6503  10.2892  11.6474

          k =-0.9157-0.0832 0.4162 (  1721 PWs)   bands (ev):

    -2.6255  -1.6121   1.6148   2.3337   8.4126   9.6498  10.2896  11.6470

          k =-1.0822 0.2497 0.2497 (  1722 PWs)   bands (ev):

    -2.8258  -1.5033   1.4968   3.1340   6.7416   9.5024  12.2621  12.3075

          k =-0.2497-1.0822-0.2497 (  1722 PWs)   bands (ev):

    -2.8255  -1.5038   1.4971   3.1340   6.7416   9.5024  12.2626  12.3077

          k = 0.4162 0.4162 0.4162 (  1721 PWs)   bands (ev):

    -4.2621  -0.8095   4.2800   4.2800   6.7294   8.8265   8.8265  13.0990

          k =-0.4162-0.4162 1.2487 (  1726 PWs)   bands (ev):

    -3.7036  -1.1185   2.5537   3.8778   7.5306   9.3042   9.7593  13.0944

          k = 0.4162 0.4162 1.2487 (  1726 PWs)   bands (ev):

    -3.7032  -1.1195   2.5543   3.8776   7.5307   9.3044   9.7601  13.0946

     the Fermi energy is     5.6530 ev

!    total energy              =     -93.52631219 Ry
     total all-electron energy =     -1160.218042 Ry
     estimated scf accuracy    <          8.7E-12 Ry
     smearing contrib. (-TS)   =      -0.21601666 Ry
     internal energy E=F+TS    =     -93.31029553 Ry

     The total energy is F=E-TS. E is the sum of the following terms:
     one-electron contribution =       5.37705058 Ry
     hartree contribution      =       1.08683510 Ry
     xc contribution           =     -12.18981230 Ry
     ewald contribution        =     -16.41056060 Ry
     one-center paw contrib.   =     -71.17380830 Ry

     convergence has been achieved in   4 iterations

     Forces acting on atoms (cartesian axes, Ry/au):

     atom    1 type  1   force =     0.00003242    0.00003242    0.00003242
     atom    2 type  1   force =    -0.00003242   -0.00003242   -0.00003242

     Total force =     0.000079     Total SCF correction =     0.000000


     Computing stress (Cartesian axis) and pressure

          total   stress  (Ry/bohr**3)                   (kbar)     P=       -1.95
  -0.00001325  -0.00000025  -0.00000025           -1.95       -0.04       -0.04
  -0.00000025  -0.00001325  -0.00000025           -0.04       -1.95       -0.04
  -0.00000025  -0.00000025  -0.00001325           -0.04       -0.04       -1.95

     Energy error            =      9.0E-06 Ry
     Gradient error          =      3.2E-05 Ry/Bohr
     Cell gradient error     =      1.9E+00 kbar

     number of scf cycles    =   5
     number of bfgs steps    =   4

     enthalpy           old  =     -93.5263032355 Ry
     enthalpy           new  =     -93.5263121872 Ry

     CASE: enthalpy          _new < enthalpy          _old

     new trust radius        =       0.0028386841 bohr
ibrav =      2
 celldm(1) =     10.49545508
Input lattice vectors:
    -0.50012996     0.00000000     0.50012996
    -0.00001427     0.50011568     0.50011568
    -0.50012996     0.50012996     0.00000000
New lattice vectors in INITIAL alat:
    -0.50012996     0.00000000     0.50012996
     0.00000000     0.50012996     0.50012996
    -0.50012996     0.50012996     0.00000000
New lattice vectors in NEW alat (for information only):
    -0.50000000     0.00000000     0.50000000
     0.00000000     0.50000000     0.50000000
    -0.50000000     0.50000000     0.00000000
Discrepancy in bohr =     0.000000    0.000025    0.000000

Atomic positions rescaled with new alat:
Si               0.0017343299        0.0017343299        0.0017343299
Si               0.2517132042        0.2517132042        0.2517132042
     new conv_thr            =            1.0E-10 Ry

     new unit-cell volume =    289.03060 a.u.^3 (    42.82992 Ang^3 )
     density =      2.17778 g/cm^3

CELL_PARAMETERS (alat= 10.49272791)
  -0.500129955   0.000000000   0.500129955
   0.000000000   0.500129955   0.500129955
  -0.500129955   0.500129955   0.000000000

ATOMIC_POSITIONS (alat)
Si               0.0017347807        0.0017347807        0.0017347807
Si               0.2517786272        0.2517786272        0.2517786272



     Writing config-only to output data dir ./silicon/silicon.save/ :
     XML data file
     NEW-OLD atomic charge density approx. for the potential
     New effective cutoffs (rho, wfc):  299.61   49.96

     total cpu time spent up to now is       16.1 secs

     Self-consistent Calculation

     iteration #  1     ecut=    50.00 Ry     beta= 0.70
     Davidson diagonalization with overlap
     ethr =  1.00E-06,  avg # of iterations =  2.0

     Threshold (ethr) on eigenvalues was too large:
     Diagonalizing with lowered threshold

     Davidson diagonalization with overlap
     ethr =  3.24E-09,  avg # of iterations =  5.6

     total cpu time spent up to now is       17.2 secs

     total energy              =     -93.52631800 Ry
     estimated scf accuracy    <       0.00000017 Ry

     iteration #  2     ecut=    50.00 Ry     beta= 0.70
     Davidson diagonalization with overlap
     ethr =  2.18E-09,  avg # of iterations =  1.2

     total cpu time spent up to now is       17.6 secs

     total energy              =     -93.52631798 Ry
     estimated scf accuracy    <          5.6E-09 Ry

     iteration #  3     ecut=    50.00 Ry     beta= 0.70
     Davidson diagonalization with overlap
     ethr =  7.01E-11,  avg # of iterations =  3.0

     total cpu time spent up to now is       18.2 secs

     total energy              =     -93.52631798 Ry
     estimated scf accuracy    <          2.0E-10 Ry

     iteration #  4     ecut=    50.00 Ry     beta= 0.70
     Davidson diagonalization with overlap
     ethr =  2.45E-12,  avg # of iterations =  3.5

     total cpu time spent up to now is       18.7 secs

     End of self-consistent calculation

          k =-0.0833 0.0833 0.0833 (  1747 PWs)   bands (ev):

    -6.0201   4.5217   5.2493   5.2506   7.8358   8.1628   8.1637   8.8246

          k =-0.2499 0.2499-0.0833 (  1738 PWs)   bands (ev):

    -5.5709   2.4980   4.1039   5.0438   7.8888   8.5488   8.8458  10.7214

          k =-0.4166 0.4166-0.2499 (  1723 PWs)   bands (ev):

    -4.5495  -0.1089   3.6438   4.4470   7.3825   8.9791   9.0128  12.6146

          k = 0.4166-0.4166 0.5832 (  1723 PWs)   bands (ev):

    -3.9123  -1.1697   3.6932   4.0950   7.2387   8.7206   9.1349  13.1668

          k = 0.2499-0.2499 0.4166 (  1722 PWs)   bands (ev):

    -4.9325   0.6871   4.1612   4.1625   7.5107   8.6709   9.4525  11.2778

          k = 0.0833-0.0833 0.2499 (  1742 PWs)   bands (ev):

    -5.7931   3.4603   4.6579   4.8059   7.7127   8.4011   8.9999   9.8474

          k =-0.0833 0.4166 0.0833 (  1734 PWs)   bands (ev):

    -5.3431   2.2643   3.9448   3.9766   7.1748   9.1070  10.0068  10.1573

          k =-0.2499 0.5832-0.0833 (  1721 PWs)   bands (ev):

    -4.4880   0.5075   2.7247   3.6091   7.5559   9.1092   9.8239  11.2217

          k = 0.5832-0.2499 0.7498 (  1724 PWs)   bands (ev):

    -3.4597  -1.1065   2.1383   3.4032   7.7870   9.2609  11.1058  11.5216

          k = 0.4166-0.0833 0.5832 (  1725 PWs)   bands (ev):

    -4.1220  -0.1354   2.1245   3.8493   8.3043   8.9749  10.5439  11.0294

          k = 0.2499 0.0833 0.4166 (  1729 PWs)   bands (ev):

    -5.1317   1.4966   3.3755   4.4598   7.9758   8.7087   9.8483  10.2748

          k =-0.0833 0.7498 0.0833 (  1721 PWs)   bands (ev):

    -3.8153  -0.3154   2.7008   3.0069   6.4151   7.3794  12.6405  12.7611

          k = 0.7498-0.0833 0.9164 (  1716 PWs)   bands (ev):

    -2.6981  -1.5858   1.9312   2.6395   7.0164   8.0795  12.2574  13.6149

          k = 0.5832 0.0833 0.7498 (  1726 PWs)   bands (ev):

    -3.0628  -1.2383   1.4752   3.1466   7.5895  10.3606  11.2897  11.8779

          k = 0.4166 0.2499 0.5832 (  1733 PWs)   bands (ev):

    -4.0247  -0.7266   2.9674   3.9360   7.8422   8.6535   9.8675  12.0020

          k =-0.0833-0.9164 0.0833 (  1719 PWs)   bands (ev):

    -2.7762  -1.5899   2.4494   2.8032   6.3276   6.8657  14.0979  14.1243

          k =-0.2499-0.7498-0.0833 (  1716 PWs)   bands (ev):

    -3.6614  -0.5204   2.2188   2.9589   7.2038   8.4419  10.9502  12.6832

          k =-0.0833-0.5832 0.0833 (  1718 PWs)   bands (ev):

    -4.6789   0.9912   3.2043   3.4058   6.7045   8.2425  11.1826  11.4275

          k =-0.2499 0.2499 0.2499 (  1733 PWs)   bands (ev):

    -5.3554   1.5858   4.6739   4.6750   7.1987   8.8796   8.8807  11.7536

          k =-0.4166 0.4166 0.0833 (  1724 PWs)   bands (ev):

    -4.7180   0.6515   2.6895   4.5095   8.0455   9.3543   9.4714  11.2529

          k = 0.4166-0.4166 0.9164 (  1729 PWs)   bands (ev):

    -3.6208  -0.7390   1.6651   3.7823   7.4630  10.6177  10.6332  12.2521

          k = 0.2499-0.2499 0.7498 (  1722 PWs)   bands (ev):

    -3.5680  -0.8160   2.1004   3.3356   7.0158   9.8111  10.8346  11.2074

          k =-0.2499 0.5832 0.2499 (  1723 PWs)   bands (ev):

    -4.3219  -0.1014   3.0900   3.6853   7.4317   9.4424  10.2310  10.3989

          k = 0.5832-0.2499 1.0831 (  1722 PWs)   bands (ev):

    -3.3859  -0.8733   1.7631   2.9636   8.6206   9.1159  10.0368  12.6143

          k = 0.4166-0.0833 0.9164 (  1721 PWs)   bands (ev):

    -2.6091  -1.5934   1.6291   2.3493   8.4373   9.6762  10.3214  11.6800

          k =-0.2499-1.0831 0.2499 (  1722 PWs)   bands (ev):

    -2.8094  -1.4856   1.5107   3.1529   6.7632   9.5292  12.2953  12.3450

          k =-0.4166 0.4166 0.4166 (  1721 PWs)   bands (ev):

    -4.2490  -0.7947   4.3016   4.3027   6.7623   8.8501   8.8515  13.1284

          k = 0.4166-0.4166 1.2497 (  1726 PWs)   bands (ev):

    -3.6889  -1.1035   2.5726   3.8985   7.5577   9.3336   9.7860  13.1286

          k = 0.0833 0.0833 0.0833 (  1747 PWs)   bands (ev):

    -6.0201   4.5207   5.2505   5.2505   7.8364   8.1629   8.1629   8.8245

          k = 0.2499 0.2499-0.0833 (  1738 PWs)   bands (ev):

    -5.5708   2.4977   4.1035   5.0447   7.8888   8.5480   8.8465  10.7216

          k =-0.2499-0.2499-0.0833 (  1738 PWs)   bands (ev):

    -5.5708   2.4971   4.1041   5.0446   7.8892   8.5484   8.8462  10.7214

          k = 0.4166 0.4166-0.2499 (  1723 PWs)   bands (ev):

    -4.5495  -0.1090   3.6433   4.4478   7.3825   8.9781   9.0136  12.6148

          k =-0.4166-0.4166-0.2499 (  1723 PWs)   bands (ev):

    -4.5493  -0.1098   3.6439   4.4476   7.3829   8.9791   9.0135  12.6145

          k =-0.4166-0.4166 0.5832 (  1723 PWs)   bands (ev):

    -3.9123  -1.1697   3.6925   4.0957   7.2386   8.7214   9.1340  13.1665

          k = 0.4166 0.4166 0.5832 (  1723 PWs)   bands (ev):

    -3.9118  -1.1708   3.6932   4.0954   7.2390   8.7212   9.1350  13.1670

          k =-0.2499-0.2499 0.4166 (  1722 PWs)   bands (ev):

    -4.9325   0.6873   4.1615   4.1620   7.5107   8.6718   9.4517  11.2773

          k = 0.2499 0.2499 0.4166 (  1722 PWs)   bands (ev):

    -4.9324   0.6864   4.1619   4.1625   7.5111   8.6713   9.4527  11.2773

          k =-0.0833-0.0833 0.2499 (  1742 PWs)   bands (ev):

    -5.7931   3.4606   4.6587   4.8048   7.7127   8.4015   8.9994   9.8474

          k = 0.0833 0.0833 0.2499 (  1742 PWs)   bands (ev):

    -5.7930   3.4596   4.6586   4.8060   7.7128   8.4013   8.9997   9.8473

          k = 0.4166 0.0833 0.0833 (  1734 PWs)   bands (ev):

    -5.3431   2.2638   3.9448   3.9771   7.1749   9.1068  10.0072  10.1573

          k =-0.0833 0.4166-0.0833 (  1734 PWs)   bands (ev):

    -5.3431   2.2646   3.9438   3.9771   7.1749   9.1072  10.0066  10.1569

          k = 0.5832 0.2499-0.0833 (  1721 PWs)   bands (ev):

    -4.4879   0.5071   2.7249   3.6095   7.5554   9.1093   9.8246  11.2218

          k =-0.5832-0.2499-0.0833 (  1721 PWs)   bands (ev):

    -4.4878   0.5067   2.7252   3.6095   7.5559   9.1089   9.8246  11.2222

          k = 0.0833 0.5832-0.2499 (  1721 PWs)   bands (ev):

    -4.4880   0.5074   2.7252   3.6088   7.5557   9.1093   9.8240  11.2223

          k =-0.2499-0.5832 0.7498 (  1724 PWs)   bands (ev):

    -3.4596  -1.1066   2.1385   3.4030   7.7864   9.2615  11.1058  11.5221

          k = 0.2499 0.5832 0.7498 (  1724 PWs)   bands (ev):

    -3.4592  -1.1076   2.1389   3.4032   7.7870   9.2614  11.1062  11.5216

          k =-0.7498-0.2499 0.5832 (  1724 PWs)   bands (ev):

    -3.4597  -1.1065   2.1389   3.4025   7.7865   9.2608  11.1065  11.5220

          k =-0.0833-0.4166 0.5832 (  1725 PWs)   bands (ev):

    -4.1222  -0.1350   2.1246   3.8487   8.3038   8.9756  10.5439  11.0291

          k = 0.0833 0.4166 0.5832 (  1725 PWs)   bands (ev):

    -4.1220  -0.1359   2.1248   3.8492   8.3044   8.9753  10.5436  11.0298

          k =-0.5832-0.0833 0.4166 (  1725 PWs)   bands (ev):

    -4.1222  -0.1350   2.1248   3.8486   8.3040   8.9749  10.5440  11.0299

          k = 0.0833-0.2499 0.4166 (  1729 PWs)   bands (ev):

    -5.1318   1.4974   3.3754   4.4590   7.9758   8.7083   9.8484  10.2749

          k =-0.0833 0.2499 0.4166 (  1729 PWs)   bands (ev):

    -5.1318   1.4970   3.3751   4.4599   7.9754   8.7088   9.8481  10.2749

          k =-0.4166 0.0833 0.2499 (  1729 PWs)   bands (ev):

    -5.1318   1.4975   3.3752   4.4591   7.9756   8.7090   9.8479  10.2745

          k = 0.7498 0.0833 0.0833 (  1721 PWs)   bands (ev):

    -3.8152  -0.3156   2.7006   3.0073   6.4153   7.3791  12.6407  12.7613

          k =-0.0833 0.7498-0.0833 (  1721 PWs)   bands (ev):

    -3.8153  -0.3153   2.7002   3.0073   6.4154   7.3792  12.6405  12.7607

          k =-0.0833-0.7498 0.9164 (  1716 PWs)   bands (ev):

    -2.6981  -1.5859   1.9316   2.6392   7.0158   8.0800  12.2579  13.6150

          k = 0.0833 0.7498 0.9164 (  1716 PWs)   bands (ev):

    -2.6979  -1.5863   1.9313   2.6395   7.0163   8.0795  12.2578  13.6147

          k =-0.9164-0.0833 0.7498 (  1716 PWs)   bands (ev):

    -2.6982  -1.5858   1.9316   2.6391   7.0159   8.0800  12.2574  13.6150

          k = 0.0833-0.5832 0.7498 (  1726 PWs)   bands (ev):

    -3.0633  -1.2373   1.4753   3.1461   7.5890  10.3603  11.2903  11.8782

          k =-0.0833 0.5832 0.7498 (  1726 PWs)   bands (ev):

    -3.0630  -1.2377   1.4749   3.1466   7.5895  10.3599  11.2902  11.8779

          k =-0.7498 0.0833 0.5832 (  1726 PWs)   bands (ev):

    -3.0632  -1.2374   1.4752   3.1462   7.5889  10.3606  11.2905  11.8780

          k = 0.2499-0.4166 0.5832 (  1733 PWs)   bands (ev):

    -4.0250  -0.7256   2.9675   3.9353   7.8420   8.6526   9.8677  12.0025

          k =-0.2499 0.4166 0.5832 (  1733 PWs)   bands (ev):

    -4.0250  -0.7257   2.9669   3.9361   7.8417   8.6535   9.8669  12.0025

          k =-0.5832 0.2499 0.4166 (  1733 PWs)   bands (ev):

    -4.0250  -0.7256   2.9670   3.9358   7.8418   8.6536   9.8668  12.0019

          k =-0.9164 0.0833 0.0833 (  1719 PWs)   bands (ev):

    -2.7762  -1.5899   2.4490   2.8036   6.3281   6.8653  14.0974  14.1243

          k =-0.0833-0.9164-0.0833 (  1719 PWs)   bands (ev):

    -2.7761  -1.5901   2.4491   2.8035   6.3280   6.8653  14.0979  14.1245

          k =-0.7498 0.2499-0.0833 (  1716 PWs)   bands (ev):

    -3.6616  -0.5198   2.2189   2.9583   7.2035   8.4423  10.9496  12.6833

          k = 0.7498-0.2499-0.0833 (  1716 PWs)   bands (ev):

    -3.6616  -0.5197   2.2184   2.9588   7.2039   8.4419  10.9497  12.6827

          k = 0.0833-0.7498-0.2499 (  1716 PWs)   bands (ev):

    -3.6615  -0.5201   2.2188   2.9587   7.2033   8.4423  10.9502  12.6828

          k =-0.5832 0.0833 0.0833 (  1718 PWs)   bands (ev):

    -4.6789   0.9915   3.2035   3.4062   6.7047   8.2424  11.1825  11.4271

          k =-0.0833-0.5832-0.0833 (  1718 PWs)   bands (ev):

    -4.6788   0.9909   3.2042   3.4062   6.7046   8.2423  11.1829  11.4277

          k = 0.2499 0.2499 0.2499 (  1733 PWs)   bands (ev):

    -5.3553   1.5850   4.6748   4.6748   7.1991   8.8804   8.8804  11.7533

          k = 0.4166 0.4166 0.0833 (  1724 PWs)   bands (ev):

    -4.7178   0.6506   2.6897   4.5102   8.0460   9.3540   9.4718  11.2527

          k =-0.4166-0.4166 0.0833 (  1724 PWs)   bands (ev):

    -4.7179   0.6510   2.6893   4.5103   8.0458   9.3535   9.4717  11.2530

          k =-0.4166-0.4166 0.9164 (  1729 PWs)   bands (ev):

    -3.6206  -0.7394   1.6649   3.7828   7.4636  10.6169  10.6331  12.2523

          k = 0.4166 0.4166 0.9164 (  1729 PWs)   bands (ev):

    -3.6204  -0.7399   1.6652   3.7828   7.4636  10.6175  10.6335  12.2517

          k =-0.2499-0.2499 0.7498 (  1722 PWs)   bands (ev):

    -3.5681  -0.8158   2.0998   3.3361   7.0164   9.8106  10.8346  11.2068

          k = 0.2499 0.2499 0.7498 (  1722 PWs)   bands (ev):

    -3.5677  -0.8168   2.1005   3.3361   7.0163   9.8106  10.8348  11.2076

          k = 0.5832 0.2499 0.2499 (  1723 PWs)   bands (ev):

    -4.3217  -0.1022   3.0901   3.6857   7.4322   9.4427  10.2312  10.3984

          k =-0.2499 0.5832-0.2499 (  1723 PWs)   bands (ev):

    -4.3220  -0.1012   3.0892   3.6859   7.4322   9.4428  10.2303  10.3982

          k =-0.2499-0.5832 1.0831 (  1722 PWs)   bands (ev):

    -3.3856  -0.8742   1.7631   2.9642   8.6209   9.1164  10.0363  12.6142

          k = 0.2499 0.5832 1.0831 (  1722 PWs)   bands (ev):

    -3.3858  -0.8737   1.7628   2.9642   8.6204   9.1164  10.0369  12.6138

          k =-1.0831-0.2499 0.5832 (  1722 PWs)   bands (ev):

    -3.3859  -0.8733   1.7628   2.9639   8.6210   9.1158  10.0366  12.6136

          k =-0.0833-0.4166 0.9164 (  1721 PWs)   bands (ev):

    -2.6091  -1.5934   1.6289   2.3495   8.4378   9.6756  10.3211  11.6804

          k = 0.0833 0.4166 0.9164 (  1721 PWs)   bands (ev):

    -2.6087  -1.5940   1.6290   2.3495   8.4378   9.6758  10.3213  11.6800

          k =-0.9164-0.0833 0.4166 (  1721 PWs)   bands (ev):

    -2.6093  -1.5931   1.6293   2.3490   8.4373   9.6763  10.3210  11.6804

          k =-1.0831 0.2499 0.2499 (  1722 PWs)   bands (ev):

    -2.8089  -1.4864   1.5106   3.1533   6.7638   9.5287  12.2952  12.3452

          k =-0.2499-1.0831-0.2499 (  1722 PWs)   bands (ev):

    -2.8092  -1.4858   1.5103   3.1534   6.7638   9.5287  12.2946  12.3450

          k = 0.4166 0.4166 0.4166 (  1721 PWs)   bands (ev):

    -4.2487  -0.7957   4.3024   4.3024   6.7627   8.8512   8.8512  13.1288

          k =-0.4166-0.4166 1.2497 (  1726 PWs)   bands (ev):

    -3.6885  -1.1046   2.5727   3.8990   7.5582   9.3339   9.7860  13.1284

          k = 0.4166 0.4166 1.2497 (  1726 PWs)   bands (ev):

    -3.6889  -1.1036   2.5720   3.8991   7.5581   9.3337   9.7851  13.1283

     the Fermi energy is     5.6763 ev

!    total energy              =     -93.52631798 Ry
     total all-electron energy =     -1160.218048 Ry
     estimated scf accuracy    <          1.8E-11 Ry
     smearing contrib. (-TS)   =      -0.21553786 Ry
     internal energy E=F+TS    =     -93.31078012 Ry

     The total energy is F=E-TS. E is the sum of the following terms:
     one-electron contribution =       5.39532341 Ry
     hartree contribution      =       1.08461300 Ry
     xc contribution           =     -12.19262245 Ry
     ewald contribution        =     -16.42401742 Ry
     one-center paw contrib.   =     -71.17407667 Ry

     convergence has been achieved in   4 iterations

     Forces acting on atoms (cartesian axes, Ry/au):

     atom    1 type  1   force =    -0.00003503   -0.00003503   -0.00003503
     atom    2 type  1   force =     0.00003503    0.00003503    0.00003503

     Total force =     0.000086     Total SCF correction =     0.000000


     Computing stress (Cartesian axis) and pressure

          total   stress  (Ry/bohr**3)                   (kbar)     P=       -0.45
  -0.00000304   0.00000025   0.00000025           -0.45        0.04        0.04
   0.00000025  -0.00000304   0.00000025            0.04       -0.45        0.04
   0.00000025   0.00000025  -0.00000304            0.04        0.04       -0.45

     Energy error            =      5.8E-06 Ry
     Gradient error          =      3.5E-05 Ry/Bohr
     Cell gradient error     =      4.5E-01 kbar
ibrav =      2
 celldm(1) =     10.49545508
Input lattice vectors:
    -0.50012996     0.00000000     0.50012996
     0.00000000     0.50012996     0.50012996
    -0.50012996     0.50012996     0.00000000
New lattice vectors in INITIAL alat:
    -0.50012996     0.00000000     0.50012996
     0.00000000     0.50012996     0.50012996
    -0.50012996     0.50012996     0.00000000
New lattice vectors in NEW alat (for information only):
    -0.50000000     0.00000000     0.50000000
     0.00000000     0.50000000     0.50000000
    -0.50000000     0.50000000     0.00000000
Discrepancy in bohr =     0.000000    0.000000    0.000000

Atomic positions rescaled with new alat:
Si               0.0017343299        0.0017343299        0.0017343299
Si               0.2517132042        0.2517132042        0.2517132042

     bfgs converged in   6 scf cycles and   5 bfgs steps
     (criteria: energy <  1.0E-05 Ry, force <  1.0E-04 Ry/Bohr, cell <  5.0E-01 kbar)

     End of BFGS Geometry Optimization

     Final enthalpy           =     -93.5263179826 Ry

     File ./silicon/silicon.bfgs deleted, as requested
Begin final coordinates
     new unit-cell volume =    289.03060 a.u.^3 (    42.82992 Ang^3 )
     density =      2.17778 g/cm^3

CELL_PARAMETERS (alat= 10.49272791)
  -0.500129955   0.000000000   0.500129955
   0.000000000   0.500129955   0.500129955
  -0.500129955   0.500129955   0.000000000

ATOMIC_POSITIONS (alat)
Si               0.0017347807        0.0017347807        0.0017347807
Si               0.2517786272        0.2517786272        0.2517786272
End final coordinates



     Writing config-only to output data dir ./silicon/silicon.save/ :
     XML data file

     Final scf calculation at the relaxed structure.
     The G-vectors are recalculated for the final unit cell
     Results may differ from those at the preceding step.
 
     Parallelization info
     --------------------
     sticks:   dense  smooth     PW     G-vecs:    dense   smooth      PW
     Min         190     126     40                 4251     2300     403
     Max         192     127     41                 4252     2302     405
     Sum        1147     757    241                25509    13803    2421
 
     Using Slab Decomposition
 


     bravais-lattice index     =            2
     lattice parameter (alat)  =      10.4927  a.u.
     unit-cell volume          =     289.0306 (a.u.)^3
     number of atoms/cell      =            2
     number of atomic types    =            1
     number of electrons       =         8.00
     number of Kohn-Sham states=            8
     kinetic-energy cutoff     =      50.0000  Ry
     charge density cutoff     =     300.0000  Ry
     scf convergence threshold =      1.0E-10
     mixing beta               =       0.7000
     number of iterations used =            8  plain     mixing
     press convergence thresh. =      5.0E-01
     Exchange-correlation= SLA  PW   PBX  PBC
                           (   1   4   3   4   0   0   0)

     celldm(1)=  10.492728  celldm(2)=   0.000000  celldm(3)=   0.000000
     celldm(4)=   0.000000  celldm(5)=   0.000000  celldm(6)=   0.000000

     crystal axes: (cart. coord. in units of alat)
               a(1) = (  -0.500130   0.000000   0.500130 )  
               a(2) = (   0.000000   0.500130   0.500130 )  
               a(3) = (  -0.500130   0.500130   0.000000 )  

     reciprocal axes: (cart. coord. in units 2 pi/alat)
               b(1) = ( -0.999740 -0.999740  0.999740 )  
               b(2) = (  0.999740  0.999740  0.999740 )  
               b(3) = ( -0.999740  0.999740 -0.999740 )  


     PseudoPot. # 1 for Si read from file:
     ../../pseudo/Si.pbe-n-kjpaw_psl.1.0.0.UPF
     MD5 check sum: c39c59da582df4a0d9f10159256ea34e
     Pseudo is Projector augmented-wave + core cor, Zval =  4.0
     Generated using &quot;atomic&quot; code by A. Dal Corso  v.6.3
     Shape of augmentation charge: PSQ
     Using radial grid of 1141 points,  6 beta functions with: 
                l(1) =   0
                l(2) =   0
                l(3) =   1
                l(4) =   1
                l(5) =   2
                l(6) =   2
     Q(r) pseudized with 0 coefficients 


     atomic species   valence    mass     pseudopotential
     Si                4.00    28.08550     Si( 1.00)

      6 Sym. Ops. (no inversion) found



   Cartesian axes

     site n.     atom                  positions (alat units)
         1        Si     tau(   1) = (   0.0017348   0.0017348   0.0017348  )
         2        Si     tau(   2) = (   0.2517786   0.2517786   0.2517786  )

     number of k points=    91  Gaussian smearing, width (Ry)=  0.2000
                       cart. coord. in units 2pi/alat
        k(    1) = (  -0.0833117   0.0833117   0.0833117), wk =   0.0138889
        k(    2) = (  -0.2499350   0.2499350  -0.0833117), wk =   0.0277778
        k(    3) = (  -0.4165584   0.4165584  -0.2499350), wk =   0.0277778
        k(    4) = (   0.4165584  -0.4165584   0.5831818), wk =   0.0277778
        k(    5) = (   0.2499350  -0.2499350   0.4165584), wk =   0.0277778
        k(    6) = (   0.0833117  -0.0833117   0.2499350), wk =   0.0277778
        k(    7) = (  -0.0833117   0.4165584   0.0833117), wk =   0.0277778
        k(    8) = (  -0.2499350   0.5831818  -0.0833117), wk =   0.0277778
        k(    9) = (   0.5831818  -0.2499350   0.7498051), wk =   0.0277778
        k(   10) = (   0.4165584  -0.0833117   0.5831818), wk =   0.0277778
        k(   11) = (   0.2499350   0.0833117   0.4165584), wk =   0.0277778
        k(   12) = (  -0.0833117   0.7498051   0.0833117), wk =   0.0277778
        k(   13) = (   0.7498051  -0.0833117   0.9164285), wk =   0.0277778
        k(   14) = (   0.5831818   0.0833117   0.7498051), wk =   0.0277778
        k(   15) = (   0.4165584   0.2499350   0.5831818), wk =   0.0277778
        k(   16) = (  -0.0833117  -0.9164285   0.0833117), wk =   0.0277778
        k(   17) = (  -0.2499350  -0.7498051  -0.0833117), wk =   0.0277778
        k(   18) = (  -0.0833117  -0.5831818   0.0833117), wk =   0.0277778
        k(   19) = (  -0.2499350   0.2499350   0.2499350), wk =   0.0138889
        k(   20) = (  -0.4165584   0.4165584   0.0833117), wk =   0.0277778
        k(   21) = (   0.4165584  -0.4165584   0.9164285), wk =   0.0277778
        k(   22) = (   0.2499350  -0.2499350   0.7498051), wk =   0.0277778
        k(   23) = (  -0.2499350   0.5831818   0.2499350), wk =   0.0277778
        k(   24) = (   0.5831818  -0.2499350   1.0830518), wk =   0.0277778
        k(   25) = (   0.4165584  -0.0833117   0.9164285), wk =   0.0277778
        k(   26) = (  -0.2499350  -1.0830518   0.2499350), wk =   0.0277778
        k(   27) = (  -0.4165584   0.4165584   0.4165584), wk =   0.0138889
        k(   28) = (   0.4165584  -0.4165584   1.2496752), wk =   0.0277778
        k(   29) = (   0.0833117   0.0833117   0.0833117), wk =   0.0046296
        k(   30) = (   0.2499350   0.2499350  -0.0833117), wk =   0.0138889
        k(   31) = (  -0.2499350  -0.2499350  -0.0833117), wk =   0.0138889
        k(   32) = (   0.4165584   0.4165584  -0.2499350), wk =   0.0138889
        k(   33) = (  -0.4165584  -0.4165584  -0.2499350), wk =   0.0138889
        k(   34) = (  -0.4165584  -0.4165584   0.5831818), wk =   0.0138889
        k(   35) = (   0.4165584   0.4165584   0.5831818), wk =   0.0138889
        k(   36) = (  -0.2499350  -0.2499350   0.4165584), wk =   0.0138889
        k(   37) = (   0.2499350   0.2499350   0.4165584), wk =   0.0138889
        k(   38) = (  -0.0833117  -0.0833117   0.2499350), wk =   0.0138889
        k(   39) = (   0.0833117   0.0833117   0.2499350), wk =   0.0138889
        k(   40) = (   0.4165584   0.0833117   0.0833117), wk =   0.0138889
        k(   41) = (  -0.0833117   0.4165584  -0.0833117), wk =   0.0138889
        k(   42) = (   0.5831818   0.2499350  -0.0833117), wk =   0.0277778
        k(   43) = (  -0.5831818  -0.2499350  -0.0833117), wk =   0.0277778
        k(   44) = (   0.0833117   0.5831818  -0.2499350), wk =   0.0277778
        k(   45) = (  -0.2499350  -0.5831818   0.7498051), wk =   0.0277778
        k(   46) = (   0.2499350   0.5831818   0.7498051), wk =   0.0277778
        k(   47) = (  -0.7498051  -0.2499350   0.5831818), wk =   0.0277778
        k(   48) = (  -0.0833117  -0.4165584   0.5831818), wk =   0.0277778
        k(   49) = (   0.0833117   0.4165584   0.5831818), wk =   0.0277778
        k(   50) = (  -0.5831818  -0.0833117   0.4165584), wk =   0.0277778
        k(   51) = (   0.0833117  -0.2499350   0.4165584), wk =   0.0277778
        k(   52) = (  -0.0833117   0.2499350   0.4165584), wk =   0.0277778
        k(   53) = (  -0.4165584   0.0833117   0.2499350), wk =   0.0277778
        k(   54) = (   0.7498051   0.0833117   0.0833117), wk =   0.0138889
        k(   55) = (  -0.0833117   0.7498051  -0.0833117), wk =   0.0138889
        k(   56) = (  -0.0833117  -0.7498051   0.9164285), wk =   0.0277778
        k(   57) = (   0.0833117   0.7498051   0.9164285), wk =   0.0277778
        k(   58) = (  -0.9164285  -0.0833117   0.7498051), wk =   0.0277778
        k(   59) = (   0.0833117  -0.5831818   0.7498051), wk =   0.0277778
        k(   60) = (  -0.0833117   0.5831818   0.7498051), wk =   0.0277778
        k(   61) = (  -0.7498051   0.0833117   0.5831818), wk =   0.0277778
        k(   62) = (   0.2499350  -0.4165584   0.5831818), wk =   0.0277778
        k(   63) = (  -0.2499350   0.4165584   0.5831818), wk =   0.0277778
        k(   64) = (  -0.5831818   0.2499350   0.4165584), wk =   0.0277778
        k(   65) = (  -0.9164285   0.0833117   0.0833117), wk =   0.0138889
        k(   66) = (  -0.0833117  -0.9164285  -0.0833117), wk =   0.0138889
        k(   67) = (  -0.7498051   0.2499350  -0.0833117), wk =   0.0277778
        k(   68) = (   0.7498051  -0.2499350  -0.0833117), wk =   0.0277778
        k(   69) = (   0.0833117  -0.7498051  -0.2499350), wk =   0.0277778
        k(   70) = (  -0.5831818   0.0833117   0.0833117), wk =   0.0138889
        k(   71) = (  -0.0833117  -0.5831818  -0.0833117), wk =   0.0138889
        k(   72) = (   0.2499350   0.2499350   0.2499350), wk =   0.0046296
        k(   73) = (   0.4165584   0.4165584   0.0833117), wk =   0.0138889
        k(   74) = (  -0.4165584  -0.4165584   0.0833117), wk =   0.0138889
        k(   75) = (  -0.4165584  -0.4165584   0.9164285), wk =   0.0138889
        k(   76) = (   0.4165584   0.4165584   0.9164285), wk =   0.0138889
        k(   77) = (  -0.2499350  -0.2499350   0.7498051), wk =   0.0138889
        k(   78) = (   0.2499350   0.2499350   0.7498051), wk =   0.0138889
        k(   79) = (   0.5831818   0.2499350   0.2499350), wk =   0.0138889
        k(   80) = (  -0.2499350   0.5831818  -0.2499350), wk =   0.0138889
        k(   81) = (  -0.2499350  -0.5831818   1.0830518), wk =   0.0277778
        k(   82) = (   0.2499350   0.5831818   1.0830518), wk =   0.0277778
        k(   83) = (  -1.0830518  -0.2499350   0.5831818), wk =   0.0277778
        k(   84) = (  -0.0833117  -0.4165584   0.9164285), wk =   0.0277778
        k(   85) = (   0.0833117   0.4165584   0.9164285), wk =   0.0277778
        k(   86) = (  -0.9164285  -0.0833117   0.4165584), wk =   0.0277778
        k(   87) = (  -1.0830518   0.2499350   0.2499350), wk =   0.0138889
        k(   88) = (  -0.2499350  -1.0830518  -0.2499350), wk =   0.0138889
        k(   89) = (   0.4165584   0.4165584   0.4165584), wk =   0.0046296
        k(   90) = (  -0.4165584  -0.4165584   1.2496752), wk =   0.0138889
        k(   91) = (   0.4165584   0.4165584   1.2496752), wk =   0.0138889

     Dense  grid:    25509 G-vectors     FFT dimensions: (  45,  45,  45)

     Smooth grid:    13803 G-vectors     FFT dimensions: (  36,  36,  36)

     Estimated max dynamical RAM per process >      22.10 MB

     Estimated total dynamical RAM >     132.61 MB

     Initial potential from superposition of free atoms

     starting charge       7.9989, renormalised to       8.0000
     Starting wfcs are    8 randomized atomic wfcs
     Checking if some PAW data can be deallocated... 

     total cpu time spent up to now is       19.1 secs

     Self-consistent Calculation

     iteration #  1     ecut=    50.00 Ry     beta= 0.70
     Davidson diagonalization with overlap
     c_bands:  1 eigenvalues not converged
     c_bands:  2 eigenvalues not converged
     c_bands:  1 eigenvalues not converged
     c_bands:  1 eigenvalues not converged
     c_bands:  1 eigenvalues not converged
     c_bands:  1 eigenvalues not converged
     c_bands:  1 eigenvalues not converged
     c_bands:  2 eigenvalues not converged
     c_bands:  1 eigenvalues not converged
     c_bands:  1 eigenvalues not converged
     c_bands:  1 eigenvalues not converged
     c_bands:  1 eigenvalues not converged
     c_bands:  1 eigenvalues not converged
     c_bands:  1 eigenvalues not converged
     c_bands:  1 eigenvalues not converged
     ethr =  1.00E-06,  avg # of iterations = 17.1

     total cpu time spent up to now is       20.7 secs

     total energy              =     -93.52531635 Ry
     estimated scf accuracy    <       0.03231788 Ry

     iteration #  2     ecut=    50.00 Ry     beta= 0.70
     Davidson diagonalization with overlap
     ethr =  4.04E-04,  avg # of iterations =  1.0

     total cpu time spent up to now is       21.1 secs

     total energy              =     -93.52626938 Ry
     estimated scf accuracy    <       0.00147636 Ry

     iteration #  3     ecut=    50.00 Ry     beta= 0.70
     Davidson diagonalization with overlap
     ethr =  1.85E-05,  avg # of iterations =  1.3

     total cpu time spent up to now is       21.5 secs

     total energy              =     -93.52631166 Ry
     estimated scf accuracy    <       0.00002227 Ry

     iteration #  4     ecut=    50.00 Ry     beta= 0.70
     Davidson diagonalization with overlap
     ethr =  2.78E-07,  avg # of iterations =  4.1

     total cpu time spent up to now is       22.1 secs

     total energy              =     -93.52631780 Ry
     estimated scf accuracy    <       0.00000088 Ry

     iteration #  5     ecut=    50.00 Ry     beta= 0.70
     Davidson diagonalization with overlap
     ethr =  1.11E-08,  avg # of iterations =  3.3

     total cpu time spent up to now is       22.6 secs

     total energy              =     -93.52631801 Ry
     estimated scf accuracy    <       0.00000007 Ry

     iteration #  6     ecut=    50.00 Ry     beta= 0.70
     Davidson diagonalization with overlap
     ethr =  8.28E-10,  avg # of iterations =  3.0

     total cpu time spent up to now is       23.1 secs

     total energy              =     -93.52631802 Ry
     estimated scf accuracy    <       0.00000002 Ry

     iteration #  7     ecut=    50.00 Ry     beta= 0.70
     Davidson diagonalization with overlap
     ethr =  1.98E-10,  avg # of iterations =  1.7

     total cpu time spent up to now is       23.6 secs

     total energy              =     -93.52631802 Ry
     estimated scf accuracy    <          1.9E-10 Ry

     iteration #  8     ecut=    50.00 Ry     beta= 0.70
     Davidson diagonalization with overlap
     ethr =  2.39E-12,  avg # of iterations =  5.2

     total cpu time spent up to now is       24.2 secs

     End of self-consistent calculation

          k =-0.0833 0.0833 0.0833 (  1747 PWs)   bands (ev):

    -6.0201   4.5217   5.2493   5.2506   7.8358   8.1628   8.1637   8.8246

          k =-0.2499 0.2499-0.0833 (  1740 PWs)   bands (ev):

    -5.5709   2.4980   4.1039   5.0438   7.8888   8.5488   8.8458  10.7214

          k =-0.4166 0.4166-0.2499 (  1723 PWs)   bands (ev):

    -4.5495  -0.1089   3.6438   4.4470   7.3825   8.9791   9.0128  12.6147

          k = 0.4166-0.4166 0.5832 (  1723 PWs)   bands (ev):

    -3.9123  -1.1697   3.6932   4.0950   7.2387   8.7206   9.1349  13.1668

          k = 0.2499-0.2499 0.4166 (  1726 PWs)   bands (ev):

    -4.9325   0.6871   4.1612   4.1625   7.5108   8.6709   9.4525  11.2778

          k = 0.0833-0.0833 0.2499 (  1742 PWs)   bands (ev):

    -5.7931   3.4603   4.6579   4.8059   7.7127   8.4011   8.9999   9.8474

          k =-0.0833 0.4166 0.0833 (  1734 PWs)   bands (ev):

    -5.3431   2.2643   3.9448   3.9766   7.1748   9.1070  10.0068  10.1573

          k =-0.2499 0.5832-0.0833 (  1721 PWs)   bands (ev):

    -4.4880   0.5075   2.7247   3.6091   7.5559   9.1092   9.8239  11.2217

          k = 0.5832-0.2499 0.7498 (  1727 PWs)   bands (ev):

    -3.4597  -1.1065   2.1383   3.4032   7.7870   9.2609  11.1058  11.5216

          k = 0.4166-0.0833 0.5832 (  1725 PWs)   bands (ev):

    -4.1220  -0.1354   2.1245   3.8493   8.3043   8.9749  10.5439  11.0294

          k = 0.2499 0.0833 0.4166 (  1729 PWs)   bands (ev):

    -5.1317   1.4966   3.3755   4.4598   7.9758   8.7087   9.8483  10.2748

          k =-0.0833 0.7498 0.0833 (  1721 PWs)   bands (ev):

    -3.8153  -0.3154   2.7008   3.0069   6.4151   7.3794  12.6405  12.7612

          k = 0.7498-0.0833 0.9164 (  1716 PWs)   bands (ev):

    -2.6981  -1.5858   1.9312   2.6395   7.0164   8.0795  12.2574  13.6149

          k = 0.5832 0.0833 0.7498 (  1726 PWs)   bands (ev):

    -3.0628  -1.2383   1.4752   3.1466   7.5895  10.3606  11.2897  11.8779

          k = 0.4166 0.2499 0.5832 (  1733 PWs)   bands (ev):

    -4.0247  -0.7266   2.9674   3.9360   7.8422   8.6535   9.8675  12.0020

          k =-0.0833-0.9164 0.0833 (  1719 PWs)   bands (ev):

    -2.7762  -1.5899   2.4494   2.8032   6.3276   6.8657  14.0979  14.1243

          k =-0.2499-0.7498-0.0833 (  1719 PWs)   bands (ev):

    -3.6614  -0.5204   2.2188   2.9589   7.2038   8.4419  10.9502  12.6832

          k =-0.0833-0.5832 0.0833 (  1718 PWs)   bands (ev):

    -4.6789   0.9912   3.2043   3.4058   6.7045   8.2425  11.1826  11.4275

          k =-0.2499 0.2499 0.2499 (  1733 PWs)   bands (ev):

    -5.3554   1.5858   4.6739   4.6750   7.1987   8.8796   8.8807  11.7536

          k =-0.4166 0.4166 0.0833 (  1724 PWs)   bands (ev):

    -4.7180   0.6515   2.6895   4.5095   8.0455   9.3543   9.4714  11.2529

          k = 0.4166-0.4166 0.9164 (  1729 PWs)   bands (ev):

    -3.6208  -0.7390   1.6651   3.7823   7.4630  10.6177  10.6332  12.2522

          k = 0.2499-0.2499 0.7498 (  1722 PWs)   bands (ev):

    -3.5680  -0.8160   2.1004   3.3356   7.0158   9.8111  10.8346  11.2074

          k =-0.2499 0.5832 0.2499 (  1725 PWs)   bands (ev):

    -4.3219  -0.1014   3.0900   3.6853   7.4317   9.4424  10.2310  10.3989

          k = 0.5832-0.2499 1.0831 (  1722 PWs)   bands (ev):

    -3.3859  -0.8733   1.7631   2.9636   8.6206   9.1159  10.0368  12.6143

          k = 0.4166-0.0833 0.9164 (  1721 PWs)   bands (ev):

    -2.6091  -1.5934   1.6291   2.3493   8.4373   9.6762  10.3214  11.6800

          k =-0.2499-1.0831 0.2499 (  1722 PWs)   bands (ev):

    -2.8094  -1.4856   1.5107   3.1529   6.7632   9.5292  12.2953  12.3450

          k =-0.4166 0.4166 0.4166 (  1721 PWs)   bands (ev):

    -4.2490  -0.7947   4.3016   4.3027   6.7623   8.8501   8.8515  13.1284

          k = 0.4166-0.4166 1.2497 (  1726 PWs)   bands (ev):

    -3.6889  -1.1035   2.5726   3.8985   7.5577   9.3336   9.7860  13.1287

          k = 0.0833 0.0833 0.0833 (  1747 PWs)   bands (ev):

    -6.0201   4.5207   5.2505   5.2505   7.8364   8.1629   8.1629   8.8245

          k = 0.2499 0.2499-0.0833 (  1740 PWs)   bands (ev):

    -5.5708   2.4977   4.1035   5.0447   7.8888   8.5480   8.8465  10.7216

          k =-0.2499-0.2499-0.0833 (  1740 PWs)   bands (ev):

    -5.5708   2.4971   4.1041   5.0446   7.8892   8.5484   8.8462  10.7214

          k = 0.4166 0.4166-0.2499 (  1723 PWs)   bands (ev):

    -4.5495  -0.1090   3.6433   4.4478   7.3825   8.9781   9.0136  12.6149

          k =-0.4166-0.4166-0.2499 (  1723 PWs)   bands (ev):

    -4.5493  -0.1098   3.6439   4.4476   7.3829   8.9791   9.0135  12.6146

          k =-0.4166-0.4166 0.5832 (  1723 PWs)   bands (ev):

    -3.9123  -1.1697   3.6925   4.0957   7.2386   8.7214   9.1340  13.1666

          k = 0.4166 0.4166 0.5832 (  1723 PWs)   bands (ev):

    -3.9118  -1.1708   3.6932   4.0954   7.2390   8.7212   9.1350  13.1670

          k =-0.2499-0.2499 0.4166 (  1726 PWs)   bands (ev):

    -4.9325   0.6873   4.1615   4.1620   7.5107   8.6718   9.4517  11.2773

          k = 0.2499 0.2499 0.4166 (  1726 PWs)   bands (ev):

    -4.9324   0.6864   4.1619   4.1625   7.5111   8.6713   9.4527  11.2773

          k =-0.0833-0.0833 0.2499 (  1742 PWs)   bands (ev):

    -5.7931   3.4606   4.6587   4.8048   7.7127   8.4015   8.9994   9.8474

          k = 0.0833 0.0833 0.2499 (  1742 PWs)   bands (ev):

    -5.7930   3.4596   4.6586   4.8060   7.7128   8.4013   8.9997   9.8473

          k = 0.4166 0.0833 0.0833 (  1734 PWs)   bands (ev):

    -5.3431   2.2638   3.9448   3.9771   7.1749   9.1068  10.0072  10.1573

          k =-0.0833 0.4166-0.0833 (  1734 PWs)   bands (ev):

    -5.3431   2.2646   3.9438   3.9771   7.1749   9.1072  10.0066  10.1569

          k = 0.5832 0.2499-0.0833 (  1721 PWs)   bands (ev):

    -4.4879   0.5071   2.7249   3.6095   7.5554   9.1093   9.8246  11.2218

          k =-0.5832-0.2499-0.0833 (  1721 PWs)   bands (ev):

    -4.4878   0.5067   2.7252   3.6095   7.5559   9.1089   9.8246  11.2222

          k = 0.0833 0.5832-0.2499 (  1721 PWs)   bands (ev):

    -4.4880   0.5074   2.7252   3.6088   7.5557   9.1093   9.8240  11.2223

          k =-0.2499-0.5832 0.7498 (  1727 PWs)   bands (ev):

    -3.4596  -1.1066   2.1385   3.4030   7.7864   9.2615  11.1058  11.5221

          k = 0.2499 0.5832 0.7498 (  1727 PWs)   bands (ev):

    -3.4592  -1.1076   2.1389   3.4032   7.7870   9.2614  11.1062  11.5216

          k =-0.7498-0.2499 0.5832 (  1727 PWs)   bands (ev):

    -3.4597  -1.1065   2.1389   3.4025   7.7865   9.2608  11.1065  11.5220

          k =-0.0833-0.4166 0.5832 (  1725 PWs)   bands (ev):

    -4.1222  -0.1350   2.1246   3.8487   8.3038   8.9756  10.5439  11.0291

          k = 0.0833 0.4166 0.5832 (  1725 PWs)   bands (ev):

    -4.1220  -0.1359   2.1248   3.8492   8.3044   8.9753  10.5436  11.0298

          k =-0.5832-0.0833 0.4166 (  1725 PWs)   bands (ev):

    -4.1222  -0.1350   2.1248   3.8486   8.3040   8.9749  10.5440  11.0299

          k = 0.0833-0.2499 0.4166 (  1729 PWs)   bands (ev):

    -5.1318   1.4974   3.3754   4.4590   7.9758   8.7083   9.8484  10.2749

          k =-0.0833 0.2499 0.4166 (  1729 PWs)   bands (ev):

    -5.1318   1.4970   3.3751   4.4599   7.9754   8.7088   9.8481  10.2749

          k =-0.4166 0.0833 0.2499 (  1729 PWs)   bands (ev):

    -5.1318   1.4975   3.3752   4.4591   7.9756   8.7090   9.8479  10.2745

          k = 0.7498 0.0833 0.0833 (  1721 PWs)   bands (ev):

    -3.8152  -0.3156   2.7006   3.0073   6.4153   7.3791  12.6407  12.7613

          k =-0.0833 0.7498-0.0833 (  1721 PWs)   bands (ev):

    -3.8153  -0.3153   2.7002   3.0073   6.4154   7.3792  12.6405  12.7607

          k =-0.0833-0.7498 0.9164 (  1716 PWs)   bands (ev):

    -2.6981  -1.5859   1.9316   2.6392   7.0158   8.0800  12.2579  13.6150

          k = 0.0833 0.7498 0.9164 (  1716 PWs)   bands (ev):

    -2.6979  -1.5863   1.9313   2.6395   7.0163   8.0795  12.2578  13.6147

          k =-0.9164-0.0833 0.7498 (  1716 PWs)   bands (ev):

    -2.6982  -1.5858   1.9316   2.6391   7.0159   8.0800  12.2574  13.6150

          k = 0.0833-0.5832 0.7498 (  1726 PWs)   bands (ev):

    -3.0633  -1.2373   1.4753   3.1461   7.5890  10.3603  11.2903  11.8782

          k =-0.0833 0.5832 0.7498 (  1726 PWs)   bands (ev):

    -3.0630  -1.2377   1.4749   3.1466   7.5895  10.3599  11.2903  11.8779

          k =-0.7498 0.0833 0.5832 (  1726 PWs)   bands (ev):

    -3.0632  -1.2374   1.4752   3.1462   7.5889  10.3606  11.2905  11.8780

          k = 0.2499-0.4166 0.5832 (  1733 PWs)   bands (ev):

    -4.0250  -0.7256   2.9675   3.9353   7.8420   8.6526   9.8677  12.0025

          k =-0.2499 0.4166 0.5832 (  1733 PWs)   bands (ev):

    -4.0250  -0.7257   2.9668   3.9361   7.8417   8.6535   9.8669  12.0025

          k =-0.5832 0.2499 0.4166 (  1733 PWs)   bands (ev):

    -4.0250  -0.7256   2.9670   3.9358   7.8418   8.6536   9.8668  12.0019

          k =-0.9164 0.0833 0.0833 (  1719 PWs)   bands (ev):

    -2.7762  -1.5899   2.4490   2.8036   6.3281   6.8653  14.0974  14.1243

          k =-0.0833-0.9164-0.0833 (  1719 PWs)   bands (ev):

    -2.7761  -1.5901   2.4491   2.8035   6.3280   6.8653  14.0979  14.1245

          k =-0.7498 0.2499-0.0833 (  1719 PWs)   bands (ev):

    -3.6616  -0.5198   2.2189   2.9583   7.2035   8.4423  10.9496  12.6833

          k = 0.7498-0.2499-0.0833 (  1719 PWs)   bands (ev):

    -3.6616  -0.5197   2.2184   2.9588   7.2039   8.4419  10.9497  12.6827

          k = 0.0833-0.7498-0.2499 (  1719 PWs)   bands (ev):

    -3.6615  -0.5201   2.2188   2.9587   7.2033   8.4423  10.9502  12.6828

          k =-0.5832 0.0833 0.0833 (  1718 PWs)   bands (ev):

    -4.6789   0.9915   3.2035   3.4062   6.7047   8.2424  11.1825  11.4271

          k =-0.0833-0.5832-0.0833 (  1718 PWs)   bands (ev):

    -4.6788   0.9909   3.2042   3.4062   6.7046   8.2423  11.1829  11.4277

          k = 0.2499 0.2499 0.2499 (  1733 PWs)   bands (ev):

    -5.3553   1.5850   4.6748   4.6748   7.1991   8.8804   8.8804  11.7534

          k = 0.4166 0.4166 0.0833 (  1724 PWs)   bands (ev):

    -4.7178   0.6506   2.6897   4.5102   8.0460   9.3540   9.4719  11.2527

          k =-0.4166-0.4166 0.0833 (  1724 PWs)   bands (ev):

    -4.7179   0.6510   2.6893   4.5103   8.0459   9.3535   9.4717  11.2530

          k =-0.4166-0.4166 0.9164 (  1729 PWs)   bands (ev):

    -3.6206  -0.7394   1.6649   3.7828   7.4636  10.6169  10.6331  12.2523

          k = 0.4166 0.4166 0.9164 (  1729 PWs)   bands (ev):

    -3.6204  -0.7399   1.6652   3.7828   7.4636  10.6175  10.6335  12.2517

          k =-0.2499-0.2499 0.7498 (  1722 PWs)   bands (ev):

    -3.5681  -0.8158   2.0998   3.3361   7.0164   9.8106  10.8346  11.2068

          k = 0.2499 0.2499 0.7498 (  1722 PWs)   bands (ev):

    -3.5677  -0.8168   2.1005   3.3361   7.0163   9.8106  10.8348  11.2076

          k = 0.5832 0.2499 0.2499 (  1725 PWs)   bands (ev):

    -4.3217  -0.1022   3.0901   3.6857   7.4322   9.4427  10.2312  10.3984

          k =-0.2499 0.5832-0.2499 (  1725 PWs)   bands (ev):

    -4.3220  -0.1012   3.0892   3.6859   7.4322   9.4428  10.2303  10.3982

          k =-0.2499-0.5832 1.0831 (  1722 PWs)   bands (ev):

    -3.3856  -0.8742   1.7631   2.9642   8.6209   9.1164  10.0363  12.6142

          k = 0.2499 0.5832 1.0831 (  1722 PWs)   bands (ev):

    -3.3858  -0.8737   1.7628   2.9642   8.6204   9.1164  10.0369  12.6138

          k =-1.0831-0.2499 0.5832 (  1722 PWs)   bands (ev):

    -3.3859  -0.8733   1.7628   2.9639   8.6210   9.1158  10.0366  12.6136

          k =-0.0833-0.4166 0.9164 (  1721 PWs)   bands (ev):

    -2.6091  -1.5934   1.6289   2.3495   8.4378   9.6756  10.3211  11.6804

          k = 0.0833 0.4166 0.9164 (  1721 PWs)   bands (ev):

    -2.6087  -1.5940   1.6290   2.3495   8.4378   9.6758  10.3213  11.6800

          k =-0.9164-0.0833 0.4166 (  1721 PWs)   bands (ev):

    -2.6093  -1.5931   1.6293   2.3490   8.4373   9.6763  10.3210  11.6804

          k =-1.0831 0.2499 0.2499 (  1722 PWs)   bands (ev):

    -2.8089  -1.4864   1.5106   3.1533   6.7638   9.5287  12.2952  12.3452

          k =-0.2499-1.0831-0.2499 (  1722 PWs)   bands (ev):

    -2.8092  -1.4858   1.5103   3.1534   6.7638   9.5287  12.2946  12.3450

          k = 0.4166 0.4166 0.4166 (  1721 PWs)   bands (ev):

    -4.2487  -0.7957   4.3024   4.3024   6.7627   8.8512   8.8512  13.1288

          k =-0.4166-0.4166 1.2497 (  1726 PWs)   bands (ev):

    -3.6885  -1.1046   2.5727   3.8990   7.5582   9.3339   9.7860  13.1284

          k = 0.4166 0.4166 1.2497 (  1726 PWs)   bands (ev):

    -3.6889  -1.1036   2.5720   3.8991   7.5581   9.3337   9.7851  13.1283

     the Fermi energy is     5.6763 ev

!    total energy              =     -93.52631802 Ry
     total all-electron energy =     -1160.218048 Ry
     estimated scf accuracy    <          6.5E-12 Ry
     smearing contrib. (-TS)   =      -0.21553772 Ry
     internal energy E=F+TS    =     -93.31078030 Ry

     The total energy is F=E-TS. E is the sum of the following terms:
     one-electron contribution =       5.39532357 Ry
     hartree contribution      =       1.08461416 Ry
     xc contribution           =     -12.19262306 Ry
     ewald contribution        =     -16.42401742 Ry
     one-center paw contrib.   =     -71.17407756 Ry

     convergence has been achieved in   8 iterations

     Forces acting on atoms (cartesian axes, Ry/au):

     atom    1 type  1   force =    -0.00003501   -0.00003501   -0.00003501
     atom    2 type  1   force =     0.00003501    0.00003501    0.00003501

     Total force =     0.000086     Total SCF correction =     0.000000


     Computing stress (Cartesian axis) and pressure

          total   stress  (Ry/bohr**3)                   (kbar)     P=       -0.45
  -0.00000303   0.00000025   0.00000025           -0.45        0.04        0.04
   0.00000025  -0.00000303   0.00000025            0.04       -0.45        0.04
   0.00000025   0.00000025  -0.00000303            0.04        0.04       -0.45


     Writing all to output data dir ./silicon/silicon.save/ :
     XML data file, charge density, pseudopotentials, collected wavefunctions
 
     init_run     :      0.48s CPU      0.50s WALL (       2 calls)
     electrons    :     20.59s CPU     21.61s WALL (       7 calls)
     update_pot   :      0.34s CPU      0.34s WALL (       5 calls)
     forces       :      0.28s CPU      0.29s WALL (       7 calls)
     stress       :      1.14s CPU      1.15s WALL (       7 calls)

     Called by init_run:
     wfcinit      :      0.20s CPU      0.21s WALL (       2 calls)
     potinit      :      0.13s CPU      0.14s WALL (       2 calls)
     hinit0       :      0.09s CPU      0.09s WALL (       2 calls)

     Called by electrons:
     c_bands      :     15.21s CPU     16.04s WALL (      40 calls)
     sum_band     :      2.77s CPU      2.92s WALL (      40 calls)
     v_of_rho     :      0.19s CPU      0.20s WALL (      41 calls)
     newd         :      0.40s CPU      0.40s WALL (      41 calls)
     PAW_pot      :      2.79s CPU      2.82s WALL (      46 calls)
     mix_rho      :      0.02s CPU      0.02s WALL (      40 calls)

     Called by c_bands:
     init_us_2    :      0.50s CPU      0.52s WALL (    9191 calls)
     cegterg      :     13.25s CPU     14.00s WALL (    3640 calls)

     Called by *egterg:
     cdiaghg      :      0.91s CPU      0.96s WALL (   15110 calls)
     h_psi        :     11.18s CPU     11.80s WALL (   16293 calls)
     s_psi        :      0.26s CPU      0.27s WALL (   16293 calls)
     g_psi        :      0.04s CPU      0.05s WALL (   12471 calls)

     Called by h_psi:
     h_psi:calbec :      0.51s CPU      0.54s WALL (   16293 calls)
     vloc_psi     :     10.31s CPU     10.89s WALL (   16293 calls)
     add_vuspsi   :      0.27s CPU      0.29s WALL (   16293 calls)

     General routines
     calbec       :      0.91s CPU      0.96s WALL (   31217 calls)
     fft          :      0.11s CPU      0.12s WALL (     705 calls)
     ffts         :      0.01s CPU      0.01s WALL (      81 calls)
     fftw         :     10.48s CPU     11.08s WALL (  211312 calls)
     interpolate  :      0.01s CPU      0.01s WALL (      41 calls)
 
     Parallel routines
 
     PWSCF        :     23.36s CPU     24.44s WALL

 
   This run was terminated on:  23:13:34   1Aug2026            

=------------------------------------------------------------------------------=
   JOB DONE.
=------------------------------------------------------------------------------=
