
     Program PWSCF v.7.4 starts on  1Aug2026 at 23:16:13 

     This program is part of the open-source Quantum ESPRESSO suite
     for quantum simulation of materials; please cite
         "P. Giannozzi et al., J. Phys.:Condens. Matter 21 395502 (2009);
         "P. Giannozzi et al., J. Phys.:Condens. Matter 29 465901 (2017);
         "P. Giannozzi et al., J. Chem. Phys. 152 154105 (2020);
          URL http://www.quantum-espresso.org", 
     in publications or presentations arising from this work. More details at
     http://www.quantum-espresso.org/quote

     Parallel version (MPI), running on     6 processors

     MPI processes distributed on     1 nodes
     15447 MiB available memory on the printing compute node when the environment starts
 
     Waiting for input...
     Reading input from standard input

     Current dimensions of program PWSCF are:
     Max number of different atomic species (ntypx) = 10
     Max number of k-points (npk) =  40000
     Max angular momentum in pseudopotentials (lmaxx) =  4
     file Si.pbe-n-kjpaw_psl.1.0.0.UPF: wavefunction(s)  3S 3P renormalized
 
     R & G space division:  proc/nbgrp/npool/nimage =       6
     Subspace diagonalization in iterative solution of the eigenvalue problem:
     a serial algorithm will be used

 
     Parallelization info
     --------------------
     sticks:   dense  smooth     PW     G-vecs:    dense   smooth      PW
     Min         190     126     40                 4251     2300     403
     Max         192     127     41                 4252     2302     405
     Sum        1147     757    241                25509    13803    2421
 
     Using Slab Decomposition
 


     bravais-lattice index     =            2
     lattice parameter (alat)  =      10.4955  a.u.
     unit-cell volume          =     289.0306 (a.u.)^3
     number of atoms/cell      =            2
     number of atomic types    =            1
     number of electrons       =         8.00
     number of Kohn-Sham states=            8
     kinetic-energy cutoff     =      50.0000  Ry
     charge density cutoff     =     300.0000  Ry
     scf convergence threshold =      1.0E-08
     mixing beta               =       0.7000
     number of iterations used =            8  plain     mixing
     energy convergence thresh.=      1.0E-05
     force convergence thresh. =      1.0E-04
     press convergence thresh. =      5.0E-01
     Exchange-correlation= SLA  PW   PBX  PBC
                           (   1   4   3   4   0   0   0)
     nstep                     =           50


     celldm(1)=  10.495455  celldm(2)=   0.000000  celldm(3)=   0.000000
     celldm(4)=   0.000000  celldm(5)=   0.000000  celldm(6)=   0.000000

     crystal axes: (cart. coord. in units of alat)
               a(1) = (  -0.500000   0.000000   0.500000 )  
               a(2) = (   0.000000   0.500000   0.500000 )  
               a(3) = (  -0.500000   0.500000   0.000000 )  

     reciprocal axes: (cart. coord. in units 2 pi/alat)
               b(1) = ( -1.000000 -1.000000  1.000000 )  
               b(2) = (  1.000000  1.000000  1.000000 )  
               b(3) = ( -1.000000  1.000000 -1.000000 )  


     PseudoPot. # 1 for Si read from file:
     ../../pseudo/Si.pbe-n-kjpaw_psl.1.0.0.UPF
     MD5 check sum: c39c59da582df4a0d9f10159256ea34e
     Pseudo is Projector augmented-wave + core cor, Zval =  4.0
     Generated using &quot;atomic&quot; code by A. Dal Corso  v.6.3
     Shape of augmentation charge: PSQ
     Using radial grid of 1141 points,  6 beta functions with: 
                l(1) =   0
                l(2) =   0
                l(3) =   1
                l(4) =   1
                l(5) =   2
                l(6) =   2
     Q(r) pseudized with 0 coefficients 


     atomic species   valence    mass     pseudopotential
     Si                4.00    28.08550     Si( 1.00)

      6 Sym. Ops. (no inversion) found



   Cartesian axes

     site n.     atom                  positions (alat units)
         1        Si     tau(   1) = (   0.0017348   0.0017348   0.0017348  )
         2        Si     tau(   2) = (   0.2517786   0.2517786   0.2517786  )

     number of k points=    91  Gaussian smearing, width (Ry)=  0.2000
                       cart. coord. in units 2pi/alat
        k(    1) = (  -0.0833333   0.0833333   0.0833333), wk =   0.0138889
        k(    2) = (  -0.2500000   0.2500000  -0.0833333), wk =   0.0277778
        k(    3) = (  -0.4166667   0.4166667  -0.2500000), wk =   0.0277778
        k(    4) = (   0.4166667  -0.4166667   0.5833333), wk =   0.0277778
        k(    5) = (   0.2500000  -0.2500000   0.4166667), wk =   0.0277778
        k(    6) = (   0.0833333  -0.0833333   0.2500000), wk =   0.0277778
        k(    7) = (  -0.0833333   0.4166667   0.0833333), wk =   0.0277778
        k(    8) = (  -0.2500000   0.5833333  -0.0833333), wk =   0.0277778
        k(    9) = (   0.5833333  -0.2500000   0.7500000), wk =   0.0277778
        k(   10) = (   0.4166667  -0.0833333   0.5833333), wk =   0.0277778
        k(   11) = (   0.2500000   0.0833333   0.4166667), wk =   0.0277778
        k(   12) = (  -0.0833333   0.7500000   0.0833333), wk =   0.0277778
        k(   13) = (   0.7500000  -0.0833333   0.9166667), wk =   0.0277778
        k(   14) = (   0.5833333   0.0833333   0.7500000), wk =   0.0277778
        k(   15) = (   0.4166667   0.2500000   0.5833333), wk =   0.0277778
        k(   16) = (  -0.0833333  -0.9166667   0.0833333), wk =   0.0277778
        k(   17) = (  -0.2500000  -0.7500000  -0.0833333), wk =   0.0277778
        k(   18) = (  -0.0833333  -0.5833333   0.0833333), wk =   0.0277778
        k(   19) = (  -0.2500000   0.2500000   0.2500000), wk =   0.0138889
        k(   20) = (  -0.4166667   0.4166667   0.0833333), wk =   0.0277778
        k(   21) = (   0.4166667  -0.4166667   0.9166667), wk =   0.0277778
        k(   22) = (   0.2500000  -0.2500000   0.7500000), wk =   0.0277778
        k(   23) = (  -0.2500000   0.5833333   0.2500000), wk =   0.0277778
        k(   24) = (   0.5833333  -0.2500000   1.0833333), wk =   0.0277778
        k(   25) = (   0.4166667  -0.0833333   0.9166667), wk =   0.0277778
        k(   26) = (  -0.2500000  -1.0833333   0.2500000), wk =   0.0277778
        k(   27) = (  -0.4166667   0.4166667   0.4166667), wk =   0.0138889
        k(   28) = (   0.4166667  -0.4166667   1.2500000), wk =   0.0277778
        k(   29) = (   0.0833333   0.0833333   0.0833333), wk =   0.0046296
        k(   30) = (   0.2500000   0.2500000  -0.0833333), wk =   0.0138889
        k(   31) = (  -0.2500000  -0.2500000  -0.0833333), wk =   0.0138889
        k(   32) = (   0.4166667   0.4166667  -0.2500000), wk =   0.0138889
        k(   33) = (  -0.4166667  -0.4166667  -0.2500000), wk =   0.0138889
        k(   34) = (  -0.4166667  -0.4166667   0.5833333), wk =   0.0138889
        k(   35) = (   0.4166667   0.4166667   0.5833333), wk =   0.0138889
        k(   36) = (  -0.2500000  -0.2500000   0.4166667), wk =   0.0138889
        k(   37) = (   0.2500000   0.2500000   0.4166667), wk =   0.0138889
        k(   38) = (  -0.0833333  -0.0833333   0.2500000), wk =   0.0138889
        k(   39) = (   0.0833333   0.0833333   0.2500000), wk =   0.0138889
        k(   40) = (   0.4166667   0.0833333   0.0833333), wk =   0.0138889
        k(   41) = (  -0.0833333   0.4166667  -0.0833333), wk =   0.0138889
        k(   42) = (   0.5833333   0.2500000  -0.0833333), wk =   0.0277778
        k(   43) = (  -0.5833333  -0.2500000  -0.0833333), wk =   0.0277778
        k(   44) = (   0.0833333   0.5833333  -0.2500000), wk =   0.0277778
        k(   45) = (  -0.2500000  -0.5833333   0.7500000), wk =   0.0277778
        k(   46) = (   0.2500000   0.5833333   0.7500000), wk =   0.0277778
        k(   47) = (  -0.7500000  -0.2500000   0.5833333), wk =   0.0277778
        k(   48) = (  -0.0833333  -0.4166667   0.5833333), wk =   0.0277778
        k(   49) = (   0.0833333   0.4166667   0.5833333), wk =   0.0277778
        k(   50) = (  -0.5833333  -0.0833333   0.4166667), wk =   0.0277778
        k(   51) = (   0.0833333  -0.2500000   0.4166667), wk =   0.0277778
        k(   52) = (  -0.0833333   0.2500000   0.4166667), wk =   0.0277778
        k(   53) = (  -0.4166667   0.0833333   0.2500000), wk =   0.0277778
        k(   54) = (   0.7500000   0.0833333   0.0833333), wk =   0.0138889
        k(   55) = (  -0.0833333   0.7500000  -0.0833333), wk =   0.0138889
        k(   56) = (  -0.0833333  -0.7500000   0.9166667), wk =   0.0277778
        k(   57) = (   0.0833333   0.7500000   0.9166667), wk =   0.0277778
        k(   58) = (  -0.9166667  -0.0833333   0.7500000), wk =   0.0277778
        k(   59) = (   0.0833333  -0.5833333   0.7500000), wk =   0.0277778
        k(   60) = (  -0.0833333   0.5833333   0.7500000), wk =   0.0277778
        k(   61) = (  -0.7500000   0.0833333   0.5833333), wk =   0.0277778
        k(   62) = (   0.2500000  -0.4166667   0.5833333), wk =   0.0277778
        k(   63) = (  -0.2500000   0.4166667   0.5833333), wk =   0.0277778
        k(   64) = (  -0.5833333   0.2500000   0.4166667), wk =   0.0277778
        k(   65) = (  -0.9166667   0.0833333   0.0833333), wk =   0.0138889
        k(   66) = (  -0.0833333  -0.9166667  -0.0833333), wk =   0.0138889
        k(   67) = (  -0.7500000   0.2500000  -0.0833333), wk =   0.0277778
        k(   68) = (   0.7500000  -0.2500000  -0.0833333), wk =   0.0277778
        k(   69) = (   0.0833333  -0.7500000  -0.2500000), wk =   0.0277778
        k(   70) = (  -0.5833333   0.0833333   0.0833333), wk =   0.0138889
        k(   71) = (  -0.0833333  -0.5833333  -0.0833333), wk =   0.0138889
        k(   72) = (   0.2500000   0.2500000   0.2500000), wk =   0.0046296
        k(   73) = (   0.4166667   0.4166667   0.0833333), wk =   0.0138889
        k(   74) = (  -0.4166667  -0.4166667   0.0833333), wk =   0.0138889
        k(   75) = (  -0.4166667  -0.4166667   0.9166667), wk =   0.0138889
        k(   76) = (   0.4166667   0.4166667   0.9166667), wk =   0.0138889
        k(   77) = (  -0.2500000  -0.2500000   0.7500000), wk =   0.0138889
        k(   78) = (   0.2500000   0.2500000   0.7500000), wk =   0.0138889
        k(   79) = (   0.5833333   0.2500000   0.2500000), wk =   0.0138889
        k(   80) = (  -0.2500000   0.5833333  -0.2500000), wk =   0.0138889
        k(   81) = (  -0.2500000  -0.5833333   1.0833333), wk =   0.0277778
        k(   82) = (   0.2500000   0.5833333   1.0833333), wk =   0.0277778
        k(   83) = (  -1.0833333  -0.2500000   0.5833333), wk =   0.0277778
        k(   84) = (  -0.0833333  -0.4166667   0.9166667), wk =   0.0277778
        k(   85) = (   0.0833333   0.4166667   0.9166667), wk =   0.0277778
        k(   86) = (  -0.9166667  -0.0833333   0.4166667), wk =   0.0277778
        k(   87) = (  -1.0833333   0.2500000   0.2500000), wk =   0.0138889
        k(   88) = (  -0.2500000  -1.0833333  -0.2500000), wk =   0.0138889
        k(   89) = (   0.4166667   0.4166667   0.4166667), wk =   0.0046296
        k(   90) = (  -0.4166667  -0.4166667   1.2500000), wk =   0.0138889
        k(   91) = (   0.4166667   0.4166667   1.2500000), wk =   0.0138889

     Dense  grid:    25509 G-vectors     FFT dimensions: (  45,  45,  45)

     Smooth grid:    13803 G-vectors     FFT dimensions: (  36,  36,  36)

     Estimated max dynamical RAM per process >      22.07 MB

     Estimated total dynamical RAM >     132.41 MB

     Initial potential from superposition of free atoms

     starting charge       7.9989, renormalised to       8.0000
     Starting wfcs are    8 randomized atomic wfcs
     Checking if some PAW data can be deallocated... 

     total cpu time spent up to now is        0.4 secs

     Self-consistent Calculation

     iteration #  1     ecut=    50.00 Ry     beta= 0.70
     Davidson diagonalization with overlap
     ethr =  1.00E-02,  avg # of iterations =  4.0

     Threshold (ethr) on eigenvalues was too large:
     Diagonalizing with lowered threshold

     Davidson diagonalization with overlap
     ethr =  3.62E-04,  avg # of iterations =  4.1

     total cpu time spent up to now is        1.4 secs

     total energy              =     -93.52514910 Ry
     estimated scf accuracy    <       0.03183844 Ry

     iteration #  2     ecut=    50.00 Ry     beta= 0.70
     Davidson diagonalization with overlap
     ethr =  3.98E-04,  avg # of iterations =  1.0

     total cpu time spent up to now is        1.8 secs

     total energy              =     -93.52622154 Ry
     estimated scf accuracy    <       0.00152956 Ry

     iteration #  3     ecut=    50.00 Ry     beta= 0.70
     Davidson diagonalization with overlap
     ethr =  1.91E-05,  avg # of iterations =  4.7

     total cpu time spent up to now is        2.3 secs

     total energy              =     -93.52631125 Ry
     estimated scf accuracy    <       0.00002679 Ry

     iteration #  4     ecut=    50.00 Ry     beta= 0.70
     Davidson diagonalization with overlap
     ethr =  3.35E-07,  avg # of iterations =  4.4

     total cpu time spent up to now is        3.0 secs

     total energy              =     -93.52631780 Ry
     estimated scf accuracy    <       0.00000023 Ry

     iteration #  5     ecut=    50.00 Ry     beta= 0.70
     Davidson diagonalization with overlap
     ethr =  2.90E-09,  avg # of iterations =  4.5

     total cpu time spent up to now is        3.6 secs

     total energy              =     -93.52631799 Ry
     estimated scf accuracy    <       0.00000001 Ry

     iteration #  6     ecut=    50.00 Ry     beta= 0.70
     Davidson diagonalization with overlap
     ethr =  1.53E-10,  avg # of iterations =  3.3

     total cpu time spent up to now is        4.1 secs

     End of self-consistent calculation

          k =-0.0833 0.0833 0.0833 (  1747 PWs)   bands (ev):

    -6.0202   4.5208   5.2489   5.2516   7.8361   8.1621   8.1638   8.8244

          k =-0.2500 0.2500-0.0833 (  1740 PWs)   bands (ev):

    -5.5709   2.4969   4.1037   5.0450   7.8890   8.5478   8.8465  10.7214

          k =-0.4167 0.4167-0.2500 (  1723 PWs)   bands (ev):

    -4.5495  -0.1098   3.6433   4.4479   7.3826   8.9782   9.0139  12.6149

          k = 0.4167-0.4167 0.5833 (  1723 PWs)   bands (ev):

    -3.9121  -1.1706   3.6926   4.0958   7.2388   8.7216   9.1342  13.1667

          k = 0.2500-0.2500 0.4167 (  1726 PWs)   bands (ev):

    -4.9325   0.6866   4.1610   4.1628   7.5109   8.6719   9.4519  11.2769

          k = 0.0833-0.0833 0.2500 (  1742 PWs)   bands (ev):

    -5.7932   3.4598   4.6589   4.8050   7.7127   8.4014   8.9993   9.8472

          k =-0.0833 0.4167 0.0833 (  1734 PWs)   bands (ev):

    -5.3432   2.2640   3.9440   3.9773   7.1749   9.1069  10.0068  10.1569

          k =-0.2500 0.5833-0.0833 (  1721 PWs)   bands (ev):

    -4.4879   0.5063   2.7255   3.6093   7.5552   9.1090   9.8249  11.2225

          k = 0.5833-0.2500 0.7500 (  1727 PWs)   bands (ev):

    -3.4595  -1.1075   2.1394   3.4024   7.7861   9.2616  11.1065  11.5223

          k = 0.4167-0.0833 0.5833 (  1725 PWs)   bands (ev):

    -4.1223  -0.1352   2.1249   3.8481   8.3036   8.9756  10.5436  11.0297

          k = 0.2500 0.0833 0.4167 (  1729 PWs)   bands (ev):

    -5.1320   1.4981   3.3747   4.4586   7.9751   8.7086   9.8478  10.2747

          k =-0.0833 0.7500 0.0833 (  1721 PWs)   bands (ev):

    -3.8154  -0.3156   2.7001   3.0074   6.4154   7.3789  12.6405  12.7609

          k = 0.7500-0.0833 0.9167 (  1716 PWs)   bands (ev):

    -2.6981  -1.5863   1.9319   2.6388   7.0154   8.0802  12.2581  13.6151

          k = 0.5833 0.0833 0.7500 (  1726 PWs)   bands (ev):

    -3.0638  -1.2365   1.4749   3.1458   7.5886  10.3598  11.2912  11.8785

          k = 0.4167 0.2500 0.5833 (  1733 PWs)   bands (ev):

    -4.0255  -0.7246   2.9666   3.9352   7.8413   8.6527   9.8666  12.0026

          k =-0.0833-0.9167 0.0833 (  1719 PWs)   bands (ev):

    -2.7762  -1.5902   2.4487   2.8036   6.3282   6.8650  14.0974  14.1244

          k =-0.2500-0.7500-0.0833 (  1719 PWs)   bands (ev):

    -3.6619  -0.5193   2.2184   2.9581   7.2031   8.4425  10.9493  12.6825

          k =-0.0833-0.5833 0.0833 (  1718 PWs)   bands (ev):

    -4.6790   0.9910   3.2035   3.4063   6.7047   8.2422  11.1826  11.4272

          k =-0.2500 0.2500 0.2500 (  1733 PWs)   bands (ev):

    -5.3555   1.5851   4.6734   4.6758   7.1989   8.8791   8.8815  11.7533

          k =-0.4167 0.4167 0.0833 (  1724 PWs)   bands (ev):

    -4.7179   0.6504   2.6894   4.5105   8.0460   9.3533   9.4719  11.2527

          k = 0.4167-0.4167 0.9167 (  1729 PWs)   bands (ev):

    -3.6205  -0.7402   1.6649   3.7830   7.4638  10.6168  10.6333  12.2520

          k = 0.2500-0.2500 0.7500 (  1722 PWs)   bands (ev):

    -3.5679  -0.8166   2.0999   3.3362   7.0166   9.8102  10.8346  11.2069

          k =-0.2500 0.5833 0.2500 (  1725 PWs)   bands (ev):

    -4.3219  -0.1020   3.0894   3.6860   7.4324   9.4428  10.2305  10.3979

          k = 0.5833-0.2500 1.0833 (  1722 PWs)   bands (ev):

    -3.3857  -0.8744   1.7625   2.9647   8.6209   9.1165  10.0362  12.6133

          k = 0.4167-0.0833 0.9167 (  1721 PWs)   bands (ev):

    -2.6091  -1.5937   1.6290   2.3493   8.4380   9.6753  10.3206  11.6805

          k =-0.2500-1.0833 0.2500 (  1722 PWs)   bands (ev):

    -2.8090  -1.4865   1.5102   3.1535   6.7640   9.5283  12.2947  12.3452

          k =-0.4167 0.4167 0.4167 (  1721 PWs)   bands (ev):

    -4.2489  -0.7956   4.3011   4.3033   6.7625   8.8496   8.8524  13.1287

          k = 0.4167-0.4167 1.2500 (  1726 PWs)   bands (ev):

    -3.6887  -1.1045   2.5721   3.8992   7.5583   9.3339   9.7853  13.1281

          k = 0.0833 0.0833 0.0833 (  1747 PWs)   bands (ev):

    -6.0202   4.5229   5.2490   5.2490   7.8350   8.1635   8.1635   8.8245

          k = 0.2500 0.2500-0.0833 (  1740 PWs)   bands (ev):

    -5.5710   2.4976   4.1044   5.0430   7.8891   8.5494   8.8451  10.7210

          k =-0.2500-0.2500-0.0833 (  1740 PWs)   bands (ev):

    -5.5710   2.4987   4.1032   5.0433   7.8882   8.5487   8.8458  10.7215

          k = 0.4167 0.4167-0.2500 (  1723 PWs)   bands (ev):

    -4.5495  -0.1095   3.6445   4.4462   7.3827   8.9804   9.0122  12.6142

          k =-0.4167-0.4167-0.2500 (  1723 PWs)   bands (ev):

    -4.5499  -0.1080   3.6431   4.4467   7.3819   8.9784   9.0125  12.6148

          k =-0.4167-0.4167 0.5833 (  1723 PWs)   bands (ev):

    -3.9121  -1.1706   3.6940   4.0942   7.2389   8.7199   9.1361  13.1672

          k = 0.4167 0.4167 0.5833 (  1723 PWs)   bands (ev):

    -3.9130  -1.1685   3.6924   4.0947   7.2381   8.7204   9.1340  13.1664

          k =-0.2500-0.2500 0.4167 (  1726 PWs)   bands (ev):

    -4.9325   0.6863   4.1607   4.1634   7.5111   8.6699   9.4536  11.2781

          k = 0.2500 0.2500 0.4167 (  1726 PWs)   bands (ev):

    -4.9328   0.6880   4.1611   4.1614   7.5101   8.6709   9.4517  11.2780

          k =-0.0833-0.0833 0.2500 (  1742 PWs)   bands (ev):

    -5.7932   3.4593   4.6574   4.8073   7.7127   8.4006   9.0003   9.8471

          k = 0.0833 0.0833 0.2500 (  1742 PWs)   bands (ev):

    -5.7932   3.4613   4.6575   4.8047   7.7125   8.4010   8.9997   9.8474

          k = 0.4167 0.0833 0.0833 (  1734 PWs)   bands (ev):

    -5.3432   2.2650   3.9439   3.9762   7.1747   9.1073  10.0061  10.1568

          k =-0.0833 0.4167-0.0833 (  1734 PWs)   bands (ev):

    -5.3432   2.2634   3.9459   3.9761   7.1746   9.1065  10.0073  10.1577

          k = 0.5833 0.2500-0.0833 (  1721 PWs)   bands (ev):

    -4.4881   0.5072   2.7251   3.6086   7.5562   9.1088   9.8235  11.2223

          k =-0.5833-0.2500-0.0833 (  1721 PWs)   bands (ev):

    -4.4882   0.5080   2.7245   3.6086   7.5553   9.1097   9.8235  11.2215

          k = 0.0833 0.5833-0.2500 (  1721 PWs)   bands (ev):

    -4.4880   0.5066   2.7245   3.6100   7.5558   9.1088   9.8248  11.2213

          k =-0.2500-0.5833 0.7500 (  1727 PWs)   bands (ev):

    -3.4595  -1.1074   2.1388   3.4028   7.7873   9.2604  11.1066  11.5211

          k = 0.2500 0.5833 0.7500 (  1727 PWs)   bands (ev):

    -3.4604  -1.1053   2.1381   3.4025   7.7861   9.2605  11.1057  11.5223

          k =-0.7500-0.2500 0.5833 (  1727 PWs)   bands (ev):

    -3.4594  -1.1075   2.1380   3.4038   7.7870   9.2617  11.1051  11.5213

          k =-0.0833-0.4167 0.5833 (  1725 PWs)   bands (ev):

    -4.1220  -0.1362   2.1247   3.8493   8.3048   8.9743  10.5437  11.0304

          k = 0.0833 0.4167 0.5833 (  1725 PWs)   bands (ev):

    -4.1225  -0.1343   2.1242   3.8483   8.3035   8.9748  10.5444  11.0290

          k =-0.5833-0.0833 0.4167 (  1725 PWs)   bands (ev):

    -4.1220  -0.1360   2.1244   3.8496   8.3043   8.9757  10.5434  11.0287

          k = 0.0833-0.2500 0.4167 (  1729 PWs)   bands (ev):

    -5.1318   1.4965   3.3750   4.4602   7.9753   8.7094   9.8476  10.2744

          k =-0.0833 0.2500 0.4167 (  1729 PWs)   bands (ev):

    -5.1319   1.4971   3.3756   4.4585   7.9761   8.7083   9.8482  10.2745

          k =-0.4167 0.0833 0.2500 (  1729 PWs)   bands (ev):

    -5.1318   1.4963   3.3754   4.4600   7.9756   8.7080   9.8487  10.2753

          k = 0.7500 0.0833 0.0833 (  1721 PWs)   bands (ev):

    -3.8155  -0.3152   2.7006   3.0066   6.4150   7.3795  12.6401  12.7605

          k =-0.0833 0.7500-0.0833 (  1721 PWs)   bands (ev):

    -3.8153  -0.3159   2.7013   3.0066   6.4148   7.3794  12.6407  12.7617

          k =-0.0833-0.7500 0.9167 (  1716 PWs)   bands (ev):

    -2.6982  -1.5861   1.9310   2.6395   7.0166   8.0792  12.2570  13.6147

          k = 0.0833 0.7500 0.9167 (  1716 PWs)   bands (ev):

    -2.6987  -1.5854   1.9315   2.6388   7.0155   8.0802  12.2571  13.6152

          k =-0.9167-0.0833 0.7500 (  1716 PWs)   bands (ev):

    -2.6979  -1.5865   1.9309   2.6398   7.0165   8.0792  12.2580  13.6149

          k = 0.0833-0.5833 0.7500 (  1726 PWs)   bands (ev):

    -3.0628  -1.2385   1.4748   3.1469   7.5897  10.3604  11.2899  11.8778

          k =-0.0833 0.5833 0.7500 (  1726 PWs)   bands (ev):

    -3.0633  -1.2377   1.4756   3.1458   7.5886  10.3612  11.2900  11.8782

          k =-0.7500 0.0833 0.5833 (  1726 PWs)   bands (ev):

    -3.0629  -1.2384   1.4750   3.1466   7.5897  10.3596  11.2895  11.8781

          k = 0.2500-0.4167 0.5833 (  1733 PWs)   bands (ev):

    -4.0248  -0.7265   2.9664   3.9368   7.8416   8.6546   9.8661  12.0016

          k =-0.2500 0.4167 0.5833 (  1733 PWs)   bands (ev):

    -4.0249  -0.7263   2.9678   3.9350   7.8423   8.6528   9.8678  12.0016

          k =-0.5833 0.2500 0.4167 (  1733 PWs)   bands (ev):

    -4.0248  -0.7266   2.9675   3.9356   7.8421   8.6527   9.8680  12.0027

          k =-0.9167 0.0833 0.0833 (  1719 PWs)   bands (ev):

    -2.7762  -1.5903   2.4496   2.8029   6.3272   6.8659  14.0984  14.1243

          k =-0.0833-0.9167-0.0833 (  1719 PWs)   bands (ev):

    -2.7765  -1.5898   2.4494   2.8029   6.3273   6.8659  14.0974  14.1240

          k =-0.7500 0.2500-0.0833 (  1719 PWs)   bands (ev):

    -3.6615  -0.5205   2.2181   2.9593   7.2039   8.4416  10.9504  12.6823

          k = 0.7500-0.2500-0.0833 (  1719 PWs)   bands (ev):

    -3.6615  -0.5207   2.2194   2.9583   7.2030   8.4424  10.9503  12.6835

          k = 0.0833-0.7500-0.2500 (  1719 PWs)   bands (ev):

    -3.6617  -0.5200   2.2185   2.9584   7.2041   8.4416  10.9492  12.6833

          k =-0.5833 0.0833 0.0833 (  1718 PWs)   bands (ev):

    -4.6789   0.9905   3.2051   3.4054   6.7043   8.2423  11.1828  11.4280

          k =-0.0833-0.5833-0.0833 (  1718 PWs)   bands (ev):

    -4.6790   0.9917   3.2037   3.4055   6.7044   8.2426  11.1821  11.4269

          k = 0.2500 0.2500 0.2500 (  1733 PWs)   bands (ev):

    -5.3556   1.5866   4.6739   4.6739   7.1980   8.8798   8.8798  11.7539

          k = 0.4167 0.4167 0.0833 (  1724 PWs)   bands (ev):

    -4.7182   0.6521   2.6890   4.5091   8.0451   9.3541   9.4709  11.2532

          k =-0.4167-0.4167 0.0833 (  1724 PWs)   bands (ev):

    -4.7181   0.6512   2.6898   4.5089   8.0453   9.3551   9.4712  11.2525

          k =-0.4167-0.4167 0.9167 (  1729 PWs)   bands (ev):

    -3.6209  -0.7393   1.6654   3.7818   7.4626  10.6186  10.6334  12.2514

          k = 0.4167 0.4167 0.9167 (  1729 PWs)   bands (ev):

    -3.6212  -0.7383   1.6647   3.7819   7.4626  10.6174  10.6326  12.2528

          k =-0.2500-0.2500 0.7500 (  1722 PWs)   bands (ev):

    -3.5679  -0.8169   2.1012   3.3352   7.0154   9.8112  10.8346  11.2083

          k = 0.2500 0.2500 0.7500 (  1722 PWs)   bands (ev):

    -3.5686  -0.8150   2.0997   3.3354   7.0155   9.8113  10.8342  11.2067

          k = 0.5833 0.2500 0.2500 (  1725 PWs)   bands (ev):

    -4.3223  -0.1004   3.0891   3.6851   7.4313   9.4423  10.2301  10.3989

          k =-0.2500 0.5833-0.2500 (  1725 PWs)   bands (ev):

    -4.3219  -0.1024   3.0909   3.6848   7.4315   9.4420  10.2320  10.3993

          k =-0.2500-0.5833 1.0833 (  1722 PWs)   bands (ev):

    -3.3864  -0.8727   1.7626   2.9634   8.6202   9.1154  10.0373  12.6135

          k = 0.2500 0.5833 1.0833 (  1722 PWs)   bands (ev):

    -3.3860  -0.8736   1.7632   2.9634   8.6213   9.1154  10.0361  12.6143

          k =-1.0833-0.2500 0.5833 (  1722 PWs)   bands (ev):

    -3.3857  -0.8744   1.7632   2.9640   8.6200   9.1168  10.0367  12.6149

          k =-0.0833-0.4167 0.9167 (  1721 PWs)   bands (ev):

    -2.6091  -1.5938   1.6294   2.3490   8.4369   9.6767  10.3212  11.6798

          k = 0.0833 0.4167 0.9167 (  1721 PWs)   bands (ev):

    -2.6099  -1.5926   1.6291   2.3488   8.4369   9.6762  10.3209  11.6805

          k =-0.9167-0.0833 0.4167 (  1721 PWs)   bands (ev):

    -2.6087  -1.5943   1.6285   2.3499   8.4380   9.6753  10.3216  11.6797

          k =-1.0833 0.2500 0.2500 (  1722 PWs)   bands (ev):

    -2.8101  -1.4848   1.5105   3.1526   6.7629   9.5294  12.2949  12.3447

          k =-0.2500-1.0833-0.2500 (  1722 PWs)   bands (ev):

    -2.8094  -1.4860   1.5111   3.1526   6.7629   9.5294  12.2960  12.3451

          k = 0.4167 0.4167 0.4167 (  1721 PWs)   bands (ev):

    -4.2496  -0.7937   4.3017   4.3017   6.7617   8.8502   8.8502  13.1279

          k =-0.4167-0.4167 1.2500 (  1726 PWs)   bands (ev):

    -3.6896  -1.1023   2.5719   3.8982   7.5573   9.3331   9.7852  13.1286

          k = 0.4167 0.4167 1.2500 (  1726 PWs)   bands (ev):

    -3.6888  -1.1044   2.5733   3.8979   7.5574   9.3335   9.7870  13.1289

     the Fermi energy is     5.6762 ev

!    total energy              =     -93.52631799 Ry
     total all-electron energy =     -1160.218048 Ry
     estimated scf accuracy    <          2.5E-09 Ry
     smearing contrib. (-TS)   =      -0.21553620 Ry
     internal energy E=F+TS    =     -93.31078180 Ry

     The total energy is F=E-TS. E is the sum of the following terms:
     one-electron contribution =       5.39531789 Ry
     hartree contribution      =       1.08463594 Ry
     xc contribution           =     -12.19263488 Ry
     ewald contribution        =     -16.42401732 Ry
     one-center paw contrib.   =     -71.17408343 Ry

     convergence has been achieved in   6 iterations

     Forces acting on atoms (cartesian axes, Ry/au):

     atom    1 type  1   force =     0.00007012    0.00007012    0.00007012
     atom    2 type  1   force =    -0.00007012   -0.00007012   -0.00007012

     Total force =     0.000172     Total SCF correction =     0.000001


     Computing stress (Cartesian axis) and pressure

          total   stress  (Ry/bohr**3)                   (kbar)     P=       -0.43
  -0.00000292  -0.00000053  -0.00000053           -0.43       -0.08       -0.08
  -0.00000053  -0.00000292  -0.00000053           -0.08       -0.43       -0.08
  -0.00000053  -0.00000053  -0.00000292           -0.08       -0.08       -0.43


     BFGS Geometry Optimization
     Energy error            =      2.3E-07 Ry
     Gradient error          =      7.0E-05 Ry/Bohr
     Cell gradient error     =      4.3E-01 kbar
ibrav =      2
 celldm(1) =     10.49545507
Input lattice vectors:
    -0.50000000     0.00000000     0.50000000
     0.00000000     0.50000000     0.50000000
    -0.50000000     0.50000000     0.00000000
New lattice vectors in INITIAL alat:
    -0.50000000     0.00000000     0.50000000
     0.00000000     0.50000000     0.50000000
    -0.50000000     0.50000000     0.00000000
New lattice vectors in NEW alat (for information only):
    -0.50000000     0.00000000     0.50000000
     0.00000000     0.50000000     0.50000000
    -0.50000000     0.50000000     0.00000000
Discrepancy in bohr =     0.000000    0.000000    0.000000

     bfgs converged in   1 scf cycles and   0 bfgs steps
     (criteria: energy <  1.0E-05 Ry, force <  1.0E-04 Ry/Bohr, cell <  5.0E-01 kbar)

     End of BFGS Geometry Optimization

     Final enthalpy           =     -93.5263179942 Ry
Begin final coordinates
     new unit-cell volume =    289.03060 a.u.^3 (    42.82992 Ang^3 )
     density =      2.17778 g/cm^3

CELL_PARAMETERS (alat= 10.49545507)
  -0.500000000   0.000000000   0.500000000
   0.000000000   0.500000000   0.500000000
  -0.500000000   0.500000000   0.000000000

ATOMIC_POSITIONS (alat)
Si               0.0017347807        0.0017347807        0.0017347807
Si               0.2517786272        0.2517786272        0.2517786272
End final coordinates



     Writing config-only to output data dir ./silicon/silicon.save/ :
     XML data file

     Final scf calculation at the relaxed structure.
     The G-vectors are recalculated for the final unit cell
     Results may differ from those at the preceding step.
 
     Parallelization info
     --------------------
     sticks:   dense  smooth     PW     G-vecs:    dense   smooth      PW
     Min         190     126     40                 4251     2300     403
     Max         192     127     41                 4252     2302     405
     Sum        1147     757    241                25509    13803    2421
 
     Using Slab Decomposition
 


     bravais-lattice index     =            2
     lattice parameter (alat)  =      10.4955  a.u.
     unit-cell volume          =     289.0306 (a.u.)^3
     number of atoms/cell      =            2
     number of atomic types    =            1
     number of electrons       =         8.00
     number of Kohn-Sham states=            8
     kinetic-energy cutoff     =      50.0000  Ry
     charge density cutoff     =     300.0000  Ry
     scf convergence threshold =      1.0E-08
     mixing beta               =       0.7000
     number of iterations used =            8  plain     mixing
     press convergence thresh. =      5.0E-01
     Exchange-correlation= SLA  PW   PBX  PBC
                           (   1   4   3   4   0   0   0)

     celldm(1)=  10.495455  celldm(2)=   0.000000  celldm(3)=   0.000000
     celldm(4)=   0.000000  celldm(5)=   0.000000  celldm(6)=   0.000000

     crystal axes: (cart. coord. in units of alat)
               a(1) = (  -0.500000   0.000000   0.500000 )  
               a(2) = (   0.000000   0.500000   0.500000 )  
               a(3) = (  -0.500000   0.500000   0.000000 )  

     reciprocal axes: (cart. coord. in units 2 pi/alat)
               b(1) = ( -1.000000 -1.000000  1.000000 )  
               b(2) = (  1.000000  1.000000  1.000000 )  
               b(3) = ( -1.000000  1.000000 -1.000000 )  


     PseudoPot. # 1 for Si read from file:
     ../../pseudo/Si.pbe-n-kjpaw_psl.1.0.0.UPF
     MD5 check sum: c39c59da582df4a0d9f10159256ea34e
     Pseudo is Projector augmented-wave + core cor, Zval =  4.0
     Generated using &quot;atomic&quot; code by A. Dal Corso  v.6.3
     Shape of augmentation charge: PSQ
     Using radial grid of 1141 points,  6 beta functions with: 
                l(1) =   0
                l(2) =   0
                l(3) =   1
                l(4) =   1
                l(5) =   2
                l(6) =   2
     Q(r) pseudized with 0 coefficients 


     atomic species   valence    mass     pseudopotential
     Si                4.00    28.08550     Si( 1.00)

      6 Sym. Ops. (no inversion) found



   Cartesian axes

     site n.     atom                  positions (alat units)
         1        Si     tau(   1) = (   0.0017348   0.0017348   0.0017348  )
         2        Si     tau(   2) = (   0.2517786   0.2517786   0.2517786  )

     number of k points=    91  Gaussian smearing, width (Ry)=  0.2000
                       cart. coord. in units 2pi/alat
        k(    1) = (  -0.0833333   0.0833333   0.0833333), wk =   0.0138889
        k(    2) = (  -0.2500000   0.2500000  -0.0833333), wk =   0.0277778
        k(    3) = (  -0.4166667   0.4166667  -0.2500000), wk =   0.0277778
        k(    4) = (   0.4166667  -0.4166667   0.5833333), wk =   0.0277778
        k(    5) = (   0.2500000  -0.2500000   0.4166667), wk =   0.0277778
        k(    6) = (   0.0833333  -0.0833333   0.2500000), wk =   0.0277778
        k(    7) = (  -0.0833333   0.4166667   0.0833333), wk =   0.0277778
        k(    8) = (  -0.2500000   0.5833333  -0.0833333), wk =   0.0277778
        k(    9) = (   0.5833333  -0.2500000   0.7500000), wk =   0.0277778
        k(   10) = (   0.4166667  -0.0833333   0.5833333), wk =   0.0277778
        k(   11) = (   0.2500000   0.0833333   0.4166667), wk =   0.0277778
        k(   12) = (  -0.0833333   0.7500000   0.0833333), wk =   0.0277778
        k(   13) = (   0.7500000  -0.0833333   0.9166667), wk =   0.0277778
        k(   14) = (   0.5833333   0.0833333   0.7500000), wk =   0.0277778
        k(   15) = (   0.4166667   0.2500000   0.5833333), wk =   0.0277778
        k(   16) = (  -0.0833333  -0.9166667   0.0833333), wk =   0.0277778
        k(   17) = (  -0.2500000  -0.7500000  -0.0833333), wk =   0.0277778
        k(   18) = (  -0.0833333  -0.5833333   0.0833333), wk =   0.0277778
        k(   19) = (  -0.2500000   0.2500000   0.2500000), wk =   0.0138889
        k(   20) = (  -0.4166667   0.4166667   0.0833333), wk =   0.0277778
        k(   21) = (   0.4166667  -0.4166667   0.9166667), wk =   0.0277778
        k(   22) = (   0.2500000  -0.2500000   0.7500000), wk =   0.0277778
        k(   23) = (  -0.2500000   0.5833333   0.2500000), wk =   0.0277778
        k(   24) = (   0.5833333  -0.2500000   1.0833333), wk =   0.0277778
        k(   25) = (   0.4166667  -0.0833333   0.9166667), wk =   0.0277778
        k(   26) = (  -0.2500000  -1.0833333   0.2500000), wk =   0.0277778
        k(   27) = (  -0.4166667   0.4166667   0.4166667), wk =   0.0138889
        k(   28) = (   0.4166667  -0.4166667   1.2500000), wk =   0.0277778
        k(   29) = (   0.0833333   0.0833333   0.0833333), wk =   0.0046296
        k(   30) = (   0.2500000   0.2500000  -0.0833333), wk =   0.0138889
        k(   31) = (  -0.2500000  -0.2500000  -0.0833333), wk =   0.0138889
        k(   32) = (   0.4166667   0.4166667  -0.2500000), wk =   0.0138889
        k(   33) = (  -0.4166667  -0.4166667  -0.2500000), wk =   0.0138889
        k(   34) = (  -0.4166667  -0.4166667   0.5833333), wk =   0.0138889
        k(   35) = (   0.4166667   0.4166667   0.5833333), wk =   0.0138889
        k(   36) = (  -0.2500000  -0.2500000   0.4166667), wk =   0.0138889
        k(   37) = (   0.2500000   0.2500000   0.4166667), wk =   0.0138889
        k(   38) = (  -0.0833333  -0.0833333   0.2500000), wk =   0.0138889
        k(   39) = (   0.0833333   0.0833333   0.2500000), wk =   0.0138889
        k(   40) = (   0.4166667   0.0833333   0.0833333), wk =   0.0138889
        k(   41) = (  -0.0833333   0.4166667  -0.0833333), wk =   0.0138889
        k(   42) = (   0.5833333   0.2500000  -0.0833333), wk =   0.0277778
        k(   43) = (  -0.5833333  -0.2500000  -0.0833333), wk =   0.0277778
        k(   44) = (   0.0833333   0.5833333  -0.2500000), wk =   0.0277778
        k(   45) = (  -0.2500000  -0.5833333   0.7500000), wk =   0.0277778
        k(   46) = (   0.2500000   0.5833333   0.7500000), wk =   0.0277778
        k(   47) = (  -0.7500000  -0.2500000   0.5833333), wk =   0.0277778
        k(   48) = (  -0.0833333  -0.4166667   0.5833333), wk =   0.0277778
        k(   49) = (   0.0833333   0.4166667   0.5833333), wk =   0.0277778
        k(   50) = (  -0.5833333  -0.0833333   0.4166667), wk =   0.0277778
        k(   51) = (   0.0833333  -0.2500000   0.4166667), wk =   0.0277778
        k(   52) = (  -0.0833333   0.2500000   0.4166667), wk =   0.0277778
        k(   53) = (  -0.4166667   0.0833333   0.2500000), wk =   0.0277778
        k(   54) = (   0.7500000   0.0833333   0.0833333), wk =   0.0138889
        k(   55) = (  -0.0833333   0.7500000  -0.0833333), wk =   0.0138889
        k(   56) = (  -0.0833333  -0.7500000   0.9166667), wk =   0.0277778
        k(   57) = (   0.0833333   0.7500000   0.9166667), wk =   0.0277778
        k(   58) = (  -0.9166667  -0.0833333   0.7500000), wk =   0.0277778
        k(   59) = (   0.0833333  -0.5833333   0.7500000), wk =   0.0277778
        k(   60) = (  -0.0833333   0.5833333   0.7500000), wk =   0.0277778
        k(   61) = (  -0.7500000   0.0833333   0.5833333), wk =   0.0277778
        k(   62) = (   0.2500000  -0.4166667   0.5833333), wk =   0.0277778
        k(   63) = (  -0.2500000   0.4166667   0.5833333), wk =   0.0277778
        k(   64) = (  -0.5833333   0.2500000   0.4166667), wk =   0.0277778
        k(   65) = (  -0.9166667   0.0833333   0.0833333), wk =   0.0138889
        k(   66) = (  -0.0833333  -0.9166667  -0.0833333), wk =   0.0138889
        k(   67) = (  -0.7500000   0.2500000  -0.0833333), wk =   0.0277778
        k(   68) = (   0.7500000  -0.2500000  -0.0833333), wk =   0.0277778
        k(   69) = (   0.0833333  -0.7500000  -0.2500000), wk =   0.0277778
        k(   70) = (  -0.5833333   0.0833333   0.0833333), wk =   0.0138889
        k(   71) = (  -0.0833333  -0.5833333  -0.0833333), wk =   0.0138889
        k(   72) = (   0.2500000   0.2500000   0.2500000), wk =   0.0046296
        k(   73) = (   0.4166667   0.4166667   0.0833333), wk =   0.0138889
        k(   74) = (  -0.4166667  -0.4166667   0.0833333), wk =   0.0138889
        k(   75) = (  -0.4166667  -0.4166667   0.9166667), wk =   0.0138889
        k(   76) = (   0.4166667   0.4166667   0.9166667), wk =   0.0138889
        k(   77) = (  -0.2500000  -0.2500000   0.7500000), wk =   0.0138889
        k(   78) = (   0.2500000   0.2500000   0.7500000), wk =   0.0138889
        k(   79) = (   0.5833333   0.2500000   0.2500000), wk =   0.0138889
        k(   80) = (  -0.2500000   0.5833333  -0.2500000), wk =   0.0138889
        k(   81) = (  -0.2500000  -0.5833333   1.0833333), wk =   0.0277778
        k(   82) = (   0.2500000   0.5833333   1.0833333), wk =   0.0277778
        k(   83) = (  -1.0833333  -0.2500000   0.5833333), wk =   0.0277778
        k(   84) = (  -0.0833333  -0.4166667   0.9166667), wk =   0.0277778
        k(   85) = (   0.0833333   0.4166667   0.9166667), wk =   0.0277778
        k(   86) = (  -0.9166667  -0.0833333   0.4166667), wk =   0.0277778
        k(   87) = (  -1.0833333   0.2500000   0.2500000), wk =   0.0138889
        k(   88) = (  -0.2500000  -1.0833333  -0.2500000), wk =   0.0138889
        k(   89) = (   0.4166667   0.4166667   0.4166667), wk =   0.0046296
        k(   90) = (  -0.4166667  -0.4166667   1.2500000), wk =   0.0138889
        k(   91) = (   0.4166667   0.4166667   1.2500000), wk =   0.0138889

     Dense  grid:    25509 G-vectors     FFT dimensions: (  45,  45,  45)

     Smooth grid:    13803 G-vectors     FFT dimensions: (  36,  36,  36)

     Estimated max dynamical RAM per process >      22.10 MB

     Estimated total dynamical RAM >     132.61 MB

     Initial potential from superposition of free atoms

     starting charge       7.9989, renormalised to       8.0000
     Starting wfcs are    8 randomized atomic wfcs
     Checking if some PAW data can be deallocated... 

     total cpu time spent up to now is        4.5 secs

     Self-consistent Calculation

     iteration #  1     ecut=    50.00 Ry     beta= 0.70
     Davidson diagonalization with overlap
     c_bands:  1 eigenvalues not converged
     c_bands:  1 eigenvalues not converged
     c_bands:  2 eigenvalues not converged
     c_bands:  3 eigenvalues not converged
     c_bands:  1 eigenvalues not converged
     c_bands:  1 eigenvalues not converged
     c_bands:  1 eigenvalues not converged
     c_bands:  1 eigenvalues not converged
     c_bands:  1 eigenvalues not converged
     c_bands:  1 eigenvalues not converged
     c_bands:  1 eigenvalues not converged
     c_bands:  1 eigenvalues not converged
     c_bands:  1 eigenvalues not converged
     c_bands:  1 eigenvalues not converged
     c_bands:  1 eigenvalues not converged
     c_bands:  1 eigenvalues not converged
     c_bands:  1 eigenvalues not converged
     c_bands:  1 eigenvalues not converged
     c_bands:  1 eigenvalues not converged
     c_bands:  1 eigenvalues not converged
     ethr =  1.00E-06,  avg # of iterations = 17.0

     total cpu time spent up to now is        6.1 secs

     total energy              =     -93.52529705 Ry
     estimated scf accuracy    <       0.03232695 Ry

     iteration #  2     ecut=    50.00 Ry     beta= 0.70
     Davidson diagonalization with overlap
     ethr =  4.04E-04,  avg # of iterations =  1.0

     total cpu time spent up to now is        6.6 secs

     total energy              =     -93.52626531 Ry
     estimated scf accuracy    <       0.00147777 Ry

     iteration #  3     ecut=    50.00 Ry     beta= 0.70
     Davidson diagonalization with overlap
     ethr =  1.85E-05,  avg # of iterations =  1.2

     total cpu time spent up to now is        7.0 secs

     total energy              =     -93.52631131 Ry
     estimated scf accuracy    <       0.00002190 Ry

     iteration #  4     ecut=    50.00 Ry     beta= 0.70
     Davidson diagonalization with overlap
     ethr =  2.74E-07,  avg # of iterations =  4.3

     total cpu time spent up to now is        7.5 secs

     total energy              =     -93.52631780 Ry
     estimated scf accuracy    <       0.00000076 Ry

     iteration #  5     ecut=    50.00 Ry     beta= 0.70
     Davidson diagonalization with overlap
     ethr =  9.53E-09,  avg # of iterations =  3.3

     total cpu time spent up to now is        8.1 secs

     total energy              =     -93.52631799 Ry
     estimated scf accuracy    <       0.00000005 Ry

     iteration #  6     ecut=    50.00 Ry     beta= 0.70
     Davidson diagonalization with overlap
     ethr =  5.69E-10,  avg # of iterations =  3.0

     total cpu time spent up to now is        8.6 secs

     End of self-consistent calculation

          k =-0.0833 0.0833 0.0833 (  1747 PWs)   bands (ev):

    -6.0202   4.5208   5.2488   5.2515   7.8361   8.1620   8.1638   8.8243

          k =-0.2500 0.2500-0.0833 (  1740 PWs)   bands (ev):

    -5.5710   2.4969   4.1036   5.0449   7.8890   8.5478   8.8465  10.7213

          k =-0.4167 0.4167-0.2500 (  1723 PWs)   bands (ev):

    -4.5495  -0.1098   3.6433   4.4479   7.3826   8.9782   9.0139  12.6147

          k = 0.4167-0.4167 0.5833 (  1723 PWs)   bands (ev):

    -3.9121  -1.1706   3.6925   4.0957   7.2388   8.7216   9.1341  13.1667

          k = 0.2500-0.2500 0.4167 (  1726 PWs)   bands (ev):

    -4.9326   0.6865   4.1610   4.1627   7.5108   8.6718   9.4519  11.2769

          k = 0.0833-0.0833 0.2500 (  1742 PWs)   bands (ev):

    -5.7932   3.4598   4.6588   4.8049   7.7127   8.4014   8.9993   9.8472

          k =-0.0833 0.4167 0.0833 (  1734 PWs)   bands (ev):

    -5.3432   2.2640   3.9439   3.9772   7.1748   9.1069  10.0068  10.1569

          k =-0.2500 0.5833-0.0833 (  1721 PWs)   bands (ev):

    -4.4880   0.5063   2.7254   3.6093   7.5552   9.1089   9.8249  11.2225

          k = 0.5833-0.2500 0.7500 (  1727 PWs)   bands (ev):

    -3.4595  -1.1076   2.1393   3.4024   7.7861   9.2616  11.1065  11.5223

          k = 0.4167-0.0833 0.5833 (  1725 PWs)   bands (ev):

    -4.1223  -0.1353   2.1249   3.8481   8.3036   8.9755  10.5436  11.0297

          k = 0.2500 0.0833 0.4167 (  1729 PWs)   bands (ev):

    -5.1320   1.4980   3.3747   4.4586   7.9751   8.7086   9.8477  10.2747

          k =-0.0833 0.7500 0.0833 (  1721 PWs)   bands (ev):

    -3.8154  -0.3157   2.7001   3.0074   6.4154   7.3789  12.6405  12.7608

          k = 0.7500-0.0833 0.9167 (  1716 PWs)   bands (ev):

    -2.6981  -1.5864   1.9318   2.6388   7.0154   8.0801  12.2580  13.6148

          k = 0.5833 0.0833 0.7500 (  1726 PWs)   bands (ev):

    -3.0639  -1.2366   1.4749   3.1458   7.5886  10.3597  11.2911  11.8783

          k = 0.4167 0.2500 0.5833 (  1733 PWs)   bands (ev):

    -4.0256  -0.7246   2.9665   3.9352   7.8412   8.6527   9.8666  12.0026

          k =-0.0833-0.9167 0.0833 (  1719 PWs)   bands (ev):

    -2.7763  -1.5902   2.4487   2.8036   6.3282   6.8649  14.0974  14.1243

          k =-0.2500-0.7500-0.0833 (  1719 PWs)   bands (ev):

    -3.6619  -0.5194   2.2184   2.9581   7.2031   8.4425  10.9493  12.6825

          k =-0.0833-0.5833 0.0833 (  1718 PWs)   bands (ev):

    -4.6790   0.9910   3.2035   3.4063   6.7046   8.2422  11.1826  11.4272

          k =-0.2500 0.2500 0.2500 (  1733 PWs)   bands (ev):

    -5.3555   1.5850   4.6734   4.6757   7.1988   8.8790   8.8814  11.7532

          k =-0.4167 0.4167 0.0833 (  1724 PWs)   bands (ev):

    -4.7180   0.6503   2.6894   4.5105   8.0460   9.3533   9.4719  11.2527

          k = 0.4167-0.4167 0.9167 (  1729 PWs)   bands (ev):

    -3.6206  -0.7402   1.6649   3.7829   7.4637  10.6168  10.6332  12.2521

          k = 0.2500-0.2500 0.7500 (  1722 PWs)   bands (ev):

    -3.5680  -0.8166   2.0998   3.3362   7.0165   9.8102  10.8346  11.2069

          k =-0.2500 0.5833 0.2500 (  1725 PWs)   bands (ev):

    -4.3220  -0.1020   3.0893   3.6859   7.4323   9.4427  10.2305  10.3979

          k = 0.5833-0.2500 1.0833 (  1722 PWs)   bands (ev):

    -3.3857  -0.8744   1.7625   2.9647   8.6209   9.1165  10.0362  12.6132

          k = 0.4167-0.0833 0.9167 (  1721 PWs)   bands (ev):

    -2.6092  -1.5937   1.6289   2.3492   8.4380   9.6753  10.3206  11.6805

          k =-0.2500-1.0833 0.2500 (  1722 PWs)   bands (ev):

    -2.8090  -1.4866   1.5102   3.1534   6.7640   9.5283  12.2945  12.3450

          k =-0.4167 0.4167 0.4167 (  1721 PWs)   bands (ev):

    -4.2489  -0.7956   4.3010   4.3033   6.7625   8.8496   8.8524  13.1287

          k = 0.4167-0.4167 1.2500 (  1726 PWs)   bands (ev):

    -3.6887  -1.1046   2.5721   3.8992   7.5583   9.3338   9.7852  13.1281

          k = 0.0833 0.0833 0.0833 (  1747 PWs)   bands (ev):

    -6.0202   4.5229   5.2489   5.2489   7.8350   8.1635   8.1635   8.8245

          k = 0.2500 0.2500-0.0833 (  1740 PWs)   bands (ev):

    -5.5710   2.4976   4.1043   5.0430   7.8891   8.5494   8.8451  10.7210

          k =-0.2500-0.2500-0.0833 (  1740 PWs)   bands (ev):

    -5.5711   2.4987   4.1031   5.0432   7.8881   8.5487   8.8458  10.7214

          k = 0.4167 0.4167-0.2500 (  1723 PWs)   bands (ev):

    -4.5496  -0.1096   3.6445   4.4462   7.3827   8.9803   9.0122  12.6141

          k =-0.4167-0.4167-0.2500 (  1723 PWs)   bands (ev):

    -4.5500  -0.1080   3.6431   4.4467   7.3819   8.9783   9.0125  12.6148

          k =-0.4167-0.4167 0.5833 (  1723 PWs)   bands (ev):

    -3.9121  -1.1707   3.6940   4.0942   7.2388   8.7199   9.1360  13.1672

          k = 0.4167 0.4167 0.5833 (  1723 PWs)   bands (ev):

    -3.9131  -1.1685   3.6924   4.0947   7.2381   8.7203   9.1340  13.1665

          k =-0.2500-0.2500 0.4167 (  1726 PWs)   bands (ev):

    -4.9325   0.6863   4.1607   4.1634   7.5110   8.6699   9.4536  11.2781

          k = 0.2500 0.2500 0.4167 (  1726 PWs)   bands (ev):

    -4.9328   0.6880   4.1611   4.1614   7.5100   8.6709   9.4516  11.2779

          k =-0.0833-0.0833 0.2500 (  1742 PWs)   bands (ev):

    -5.7932   3.4592   4.6573   4.8073   7.7127   8.4005   9.0003   9.8471

          k = 0.0833 0.0833 0.2500 (  1742 PWs)   bands (ev):

    -5.7932   3.4612   4.6575   4.8047   7.7124   8.4010   8.9996   9.8473

          k = 0.4167 0.0833 0.0833 (  1734 PWs)   bands (ev):

    -5.3433   2.2649   3.9439   3.9762   7.1747   9.1073  10.0061  10.1568

          k =-0.0833 0.4167-0.0833 (  1734 PWs)   bands (ev):

    -5.3432   2.2633   3.9459   3.9761   7.1746   9.1065  10.0072  10.1577

          k = 0.5833 0.2500-0.0833 (  1721 PWs)   bands (ev):

    -4.4881   0.5072   2.7251   3.6085   7.5562   9.1088   9.8234  11.2223

          k =-0.5833-0.2500-0.0833 (  1721 PWs)   bands (ev):

    -4.4882   0.5080   2.7245   3.6085   7.5553   9.1097   9.8235  11.2214

          k = 0.0833 0.5833-0.2500 (  1721 PWs)   bands (ev):

    -4.4880   0.5066   2.7245   3.6100   7.5557   9.1088   9.8248  11.2212

          k =-0.2500-0.5833 0.7500 (  1727 PWs)   bands (ev):

    -3.4595  -1.1074   2.1388   3.4028   7.7873   9.2603  11.1066  11.5211

          k = 0.2500 0.5833 0.7500 (  1727 PWs)   bands (ev):

    -3.4604  -1.1054   2.1380   3.4024   7.7861   9.2605  11.1056  11.5222

          k =-0.7500-0.2500 0.5833 (  1727 PWs)   bands (ev):

    -3.4594  -1.1076   2.1380   3.4038   7.7869   9.2617  11.1051  11.5212

          k =-0.0833-0.4167 0.5833 (  1725 PWs)   bands (ev):

    -4.1221  -0.1362   2.1247   3.8492   8.3048   8.9742  10.5436  11.0304

          k = 0.0833 0.4167 0.5833 (  1725 PWs)   bands (ev):

    -4.1225  -0.1344   2.1242   3.8482   8.3034   8.9748  10.5444  11.0289

          k =-0.5833-0.0833 0.4167 (  1725 PWs)   bands (ev):

    -4.1221  -0.1361   2.1243   3.8495   8.3043   8.9757  10.5434  11.0286

          k = 0.0833-0.2500 0.4167 (  1729 PWs)   bands (ev):

    -5.1319   1.4964   3.3749   4.4602   7.9753   8.7094   9.8476  10.2744

          k =-0.0833 0.2500 0.4167 (  1729 PWs)   bands (ev):

    -5.1320   1.4971   3.3756   4.4584   7.9761   8.7083   9.8481  10.2744

          k =-0.4167 0.0833 0.2500 (  1729 PWs)   bands (ev):

    -5.1319   1.4962   3.3754   4.4599   7.9756   8.7080   9.8487  10.2752

          k = 0.7500 0.0833 0.0833 (  1721 PWs)   bands (ev):

    -3.8155  -0.3152   2.7005   3.0066   6.4149   7.3794  12.6401  12.7605

          k =-0.0833 0.7500-0.0833 (  1721 PWs)   bands (ev):

    -3.8153  -0.3159   2.7013   3.0065   6.4148   7.3794  12.6406  12.7617

          k =-0.0833-0.7500 0.9167 (  1716 PWs)   bands (ev):

    -2.6982  -1.5861   1.9310   2.6395   7.0166   8.0791  12.2570  13.6147

          k = 0.0833 0.7500 0.9167 (  1716 PWs)   bands (ev):

    -2.6987  -1.5855   1.9315   2.6388   7.0155   8.0802  12.2571  13.6152

          k =-0.9167-0.0833 0.7500 (  1716 PWs)   bands (ev):

    -2.6980  -1.5865   1.9309   2.6398   7.0165   8.0791  12.2579  13.6146

          k = 0.0833-0.5833 0.7500 (  1726 PWs)   bands (ev):

    -3.0628  -1.2385   1.4747   3.1469   7.5896  10.3604  11.2899  11.8775

          k =-0.0833 0.5833 0.7500 (  1726 PWs)   bands (ev):

    -3.0633  -1.2378   1.4755   3.1457   7.5885  10.3611  11.2900  11.8781

          k =-0.7500 0.0833 0.5833 (  1726 PWs)   bands (ev):

    -3.0629  -1.2385   1.4750   3.1466   7.5897  10.3596  11.2895  11.8779

          k = 0.2500-0.4167 0.5833 (  1733 PWs)   bands (ev):

    -4.0249  -0.7265   2.9664   3.9367   7.8416   8.6546   9.8661  12.0016

          k =-0.2500 0.4167 0.5833 (  1733 PWs)   bands (ev):

    -4.0250  -0.7264   2.9677   3.9350   7.8422   8.6528   9.8678  12.0015

          k =-0.5833 0.2500 0.4167 (  1733 PWs)   bands (ev):

    -4.0249  -0.7267   2.9675   3.9356   7.8421   8.6526   9.8679  12.0027

          k =-0.9167 0.0833 0.0833 (  1719 PWs)   bands (ev):

    -2.7762  -1.5903   2.4496   2.8028   6.3272   6.8659  14.0984  14.1243

          k =-0.0833-0.9167-0.0833 (  1719 PWs)   bands (ev):

    -2.7765  -1.5899   2.4494   2.8028   6.3273   6.8659  14.0974  14.1239

          k =-0.7500 0.2500-0.0833 (  1719 PWs)   bands (ev):

    -3.6615  -0.5205   2.2181   2.9593   7.2038   8.4416  10.9504  12.6823

          k = 0.7500-0.2500-0.0833 (  1719 PWs)   bands (ev):

    -3.6615  -0.5207   2.2193   2.9583   7.2030   8.4424  10.9503  12.6834

          k = 0.0833-0.7500-0.2500 (  1719 PWs)   bands (ev):

    -3.6617  -0.5200   2.2185   2.9584   7.2041   8.4415  10.9492  12.6832

          k =-0.5833 0.0833 0.0833 (  1718 PWs)   bands (ev):

    -4.6790   0.9905   3.2050   3.4053   6.7042   8.2423  11.1828  11.4280

          k =-0.0833-0.5833-0.0833 (  1718 PWs)   bands (ev):

    -4.6791   0.9916   3.2037   3.4054   6.7044   8.2426  11.1821  11.4269

          k = 0.2500 0.2500 0.2500 (  1733 PWs)   bands (ev):

    -5.3556   1.5866   4.6738   4.6738   7.1979   8.8797   8.8797  11.7538

          k = 0.4167 0.4167 0.0833 (  1724 PWs)   bands (ev):

    -4.7182   0.6521   2.6890   4.5091   8.0450   9.3540   9.4708  11.2532

          k =-0.4167-0.4167 0.0833 (  1724 PWs)   bands (ev):

    -4.7181   0.6512   2.6898   4.5089   8.0453   9.3551   9.4712  11.2525

          k =-0.4167-0.4167 0.9167 (  1729 PWs)   bands (ev):

    -3.6209  -0.7393   1.6654   3.7818   7.4626  10.6185  10.6334  12.2514

          k = 0.4167 0.4167 0.9167 (  1729 PWs)   bands (ev):

    -3.6213  -0.7383   1.6646   3.7819   7.4626  10.6173  10.6325  12.2528

          k =-0.2500-0.2500 0.7500 (  1722 PWs)   bands (ev):

    -3.5680  -0.8169   2.1012   3.3352   7.0154   9.8112  10.8346  11.2083

          k = 0.2500 0.2500 0.7500 (  1722 PWs)   bands (ev):

    -3.5686  -0.8150   2.0997   3.3353   7.0155   9.8113  10.8341  11.2066

          k = 0.5833 0.2500 0.2500 (  1725 PWs)   bands (ev):

    -4.3224  -0.1005   3.0891   3.6850   7.4313   9.4422  10.2301  10.3989

          k =-0.2500 0.5833-0.2500 (  1725 PWs)   bands (ev):

    -4.3219  -0.1024   3.0909   3.6847   7.4315   9.4420  10.2319  10.3992

          k =-0.2500-0.5833 1.0833 (  1722 PWs)   bands (ev):

    -3.3864  -0.8727   1.7626   2.9634   8.6202   9.1154  10.0372  12.6134

          k = 0.2500 0.5833 1.0833 (  1722 PWs)   bands (ev):

    -3.3861  -0.8736   1.7631   2.9634   8.6213   9.1154  10.0361  12.6142

          k =-1.0833-0.2500 0.5833 (  1722 PWs)   bands (ev):

    -3.3857  -0.8745   1.7631   2.9640   8.6200   9.1167  10.0367  12.6145

          k =-0.0833-0.4167 0.9167 (  1721 PWs)   bands (ev):

    -2.6091  -1.5939   1.6293   2.3489   8.4368   9.6767  10.3212  11.6797

          k = 0.0833 0.4167 0.9167 (  1721 PWs)   bands (ev):

    -2.6099  -1.5926   1.6291   2.3488   8.4369   9.6762  10.3209  11.6804

          k =-0.9167-0.0833 0.4167 (  1721 PWs)   bands (ev):

    -2.6087  -1.5943   1.6285   2.3499   8.4379   9.6752  10.3216  11.6796

          k =-1.0833 0.2500 0.2500 (  1722 PWs)   bands (ev):

    -2.8101  -1.4848   1.5105   3.1526   6.7629   9.5293  12.2948  12.3446

          k =-0.2500-1.0833-0.2500 (  1722 PWs)   bands (ev):

    -2.8094  -1.4861   1.5111   3.1525   6.7628   9.5293  12.2960  12.3450

          k = 0.4167 0.4167 0.4167 (  1721 PWs)   bands (ev):

    -4.2496  -0.7937   4.3016   4.3016   6.7617   8.8502   8.8502  13.1279

          k =-0.4167-0.4167 1.2500 (  1726 PWs)   bands (ev):

    -3.6897  -1.1023   2.5718   3.8982   7.5573   9.3331   9.7852  13.1286

          k = 0.4167 0.4167 1.2500 (  1726 PWs)   bands (ev):

    -3.6888  -1.1044   2.5732   3.8979   7.5574   9.3335   9.7870  13.1288

     the Fermi energy is     5.6761 ev

!    total energy              =     -93.52631800 Ry
     total all-electron energy =     -1160.218048 Ry
     estimated scf accuracy    <          4.6E-09 Ry
     smearing contrib. (-TS)   =      -0.21553559 Ry
     internal energy E=F+TS    =     -93.31078241 Ry

     The total energy is F=E-TS. E is the sum of the following terms:
     one-electron contribution =       5.39531321 Ry
     hartree contribution      =       1.08464858 Ry
     xc contribution           =     -12.19264119 Ry
     ewald contribution        =     -16.42401732 Ry
     one-center paw contrib.   =     -71.17408568 Ry

     convergence has been achieved in   6 iterations

     Forces acting on atoms (cartesian axes, Ry/au):

     atom    1 type  1   force =     0.00007047    0.00007047    0.00007047
     atom    2 type  1   force =    -0.00007047   -0.00007047   -0.00007047

     Total force =     0.000173     Total SCF correction =     0.000001


     Computing stress (Cartesian axis) and pressure

          total   stress  (Ry/bohr**3)                   (kbar)     P=       -0.42
  -0.00000288  -0.00000054  -0.00000054           -0.42       -0.08       -0.08
  -0.00000054  -0.00000288  -0.00000054           -0.08       -0.42       -0.08
  -0.00000054  -0.00000054  -0.00000288           -0.08       -0.08       -0.42


     Writing all to output data dir ./silicon/silicon.save/ :
     XML data file, charge density, pseudopotentials, collected wavefunctions
 
     init_run     :      0.48s CPU      0.50s WALL (       2 calls)
     electrons    :      7.47s CPU      7.82s WALL (       2 calls)
     forces       :      0.09s CPU      0.09s WALL (       2 calls)
     stress       :      0.34s CPU      0.34s WALL (       2 calls)

     Called by init_run:
     wfcinit      :      0.20s CPU      0.21s WALL (       2 calls)
     potinit      :      0.13s CPU      0.14s WALL (       2 calls)
     hinit0       :      0.09s CPU      0.09s WALL (       2 calls)

     Called by electrons:
     c_bands      :      5.65s CPU      5.94s WALL (      13 calls)
     sum_band     :      0.86s CPU      0.90s WALL (      13 calls)
     v_of_rho     :      0.07s CPU      0.07s WALL (      14 calls)
     newd         :      0.14s CPU      0.15s WALL (      14 calls)
     PAW_pot      :      0.88s CPU      0.90s WALL (      14 calls)
     mix_rho      :      0.01s CPU      0.01s WALL (      13 calls)

     Called by c_bands:
     init_us_2    :      0.16s CPU      0.16s WALL (    2912 calls)
     cegterg      :      5.00s CPU      5.28s WALL (    1183 calls)

     Called by *egterg:
     cdiaghg      :      0.37s CPU      0.39s WALL (    6166 calls)
     h_psi        :      4.29s CPU      4.53s WALL (    6439 calls)
     s_psi        :      0.10s CPU      0.10s WALL (    6439 calls)
     g_psi        :      0.02s CPU      0.02s WALL (    5074 calls)

     Called by h_psi:
     h_psi:calbec :      0.21s CPU      0.22s WALL (    6439 calls)
     vloc_psi     :      3.94s CPU      4.16s WALL (    6439 calls)
     add_vuspsi   :      0.10s CPU      0.11s WALL (    6439 calls)

     General routines
     calbec       :      0.33s CPU      0.34s WALL (   10716 calls)
     fft          :      0.04s CPU      0.04s WALL (     229 calls)
     ffts         :      0.00s CPU      0.00s WALL (      27 calls)
     fftw         :      3.90s CPU      4.12s WALL (   79062 calls)
     interpolate  :      0.01s CPU      0.01s WALL (      14 calls)
 
     Parallel routines
 
     PWSCF        :      8.46s CPU      8.86s WALL

 
   This run was terminated on:  23:16:21   1Aug2026            

=------------------------------------------------------------------------------=
   JOB DONE.
=------------------------------------------------------------------------------=
